!- Linux Line endings 

Version,
    9.5;                      !- Version Identifier

SimulationControl,
    Yes,                      !- Do Zone Sizing Calculation
    Yes,                      !- Do System Sizing Calculation
    Yes,                      !- Do Plant Sizing Calculation
    No,                       !- Run Simulation for Sizing Periods
    Yes,                      !- Run Simulation for Weather File Run Periods
    No,                       !- Do HVAC Sizing Simulation for Sizing Periods
    1;                        !- Maximum Number of HVAC Sizing Simulation Passes

Building,
    Parsons home,             !- Name
    0,                        !- North Axis
    Suburbs,                  !- Terrain
    0.04,                     !- Loads Convergence Tolerance Value
    0.4,                      !- Temperature Convergence Tolerance Value
    FullExterior,             !- Solar Distribution
    25,                       !- Maximum Number of Warmup Days
    20;                       !- Minimum Number of Warmup Days

ZONEAIRCONTAMINANTBALANCE,
    Yes,                      !- Carbon Dioxide Concentration
    Outdoor CO2 Schedule,     !- Outdoor Carbon Dioxide Schedule Name
    No;                       !- Generic Contaminant Concentration

Timestep,
    6;                        !- Number of Timesteps per Hour

Site:Location,
    BRENTWOOD,                !- Name
    51.75,                    !- Latitude
    0.25,                     !- Longitude
    0,                        !- Time Zone
    61;                       !- Elevation

SIZINGPERIOD:DESIGNDAY,
    Cambridge.AP Ann Htg 99.6p Condns DB,    !- Name
    2,                        !- Month
    21,                       !- Day of Month
    WinterDesignDay,          !- Day Type
    -8.8,                     !- Maximum DryBulb Temperature
    0,                        !- Daily DryBulb Temperature Range
    DefaultMultipliers,       !- DryBulb Temperature Range Modifier Type
    ,                         !- DryBulb Temperature Range Modifier Day Schedule Name
    Wetbulb,                  !- Humidity Condition Type
    -10.8,                    !- Wetbulb or DewPoint at Maximum DryBulb
    ,                         !- Humidity Condition Day Schedule Name
    ,                         !- Humidity Ratio at Maximum DryBulb
    ,                         !- Enthalpy at Maximum DryBulb
    ,                         !- Daily WetBulb Temperature Range
    101153,                   !- Barometric Pressure
    6.71,                     !- Wind Speed
    0,                        !- Wind Direction
    No,                       !- Rain Indicator
    No,                       !- Snow Indicator
    No,                       !- Daylight Saving Time Indicator
    ASHRAEClearSky,           !- Solar Model Indicator
    ,                         !- Beam Solar Day Schedule Name
    ,                         !- Diffuse Solar Day Schedule Name
    0,                        !- ASHRAE Clear Sky Optical Depth for Beam Irradiance taub
    0,                        !- ASHRAE Clear Sky Optical Depth for Diffuse Irradiance taud
    0,                        !- Sky Clearness
    ,                         !- Maximum Number Warmup Days
    FullResetAtBeginEnvironment;    !- Begin Environment Reset Mode

RunPeriod,
    Run Period 1,             !- Name
    2,                        !- Begin Month
    4,                        !- Begin Day of Month
    2024,                     !- Begin Year
    2,                        !- End Month
    14,                       !- End Day of Month
    2024,                     !- End Year
    Sunday,                   !- Day of Week for Start Day
    Yes,                      !- Use Weather File Holidays and Special Days
    Yes,                      !- Use Weather File Daylight Saving Period
    No,                       !- Apply Weekend Holiday Rule
    Yes,                      !- Use Weather File Rain Indicators
    Yes;                      !- Use Weather File Snow Indicators

SITE:GROUNDTEMPERATURE:BUILDINGSURFACE,
    7,                        !- January Ground Temperature
    6.4,                      !- February Ground Temperature
    8.1,                      !- March Ground Temperature
    8.9,                      !- April Ground Temperature
    10.8,                     !- May Ground Temperature
    13.4,                     !- June Ground Temperature
    16.1,                     !- July Ground Temperature
    17.2,                     !- August Ground Temperature
    16.2,                     !- September Ground Temperature
    13.5,                     !- October Ground Temperature
    9.7,                      !- November Ground Temperature
    7.9;                      !- December Ground Temperature

SCHEDULETYPELIMITS,
    Limits Any Number,        !- Name
    ,                         !- Lower Limit Value
    ,                         !- Upper Limit Value
    ,                         !- Numeric Type
    Dimensionless;            !- Unit Type

SCHEDULETYPELIMITS,
    Fraction,                 !- Name
    0,                        !- Lower Limit Value
    1,                        !- Upper Limit Value
    Continuous,               !- Numeric Type
    Dimensionless;            !- Unit Type

SCHEDULETYPELIMITS,
    Any Number,               !- Name
    ,                         !- Lower Limit Value
    ,                         !- Upper Limit Value
    ,                         !- Numeric Type
    Dimensionless;            !- Unit Type

SCHEDULE:COMPACT,
    Always 4,                 !- Name
    Limits Any Number,        !- Schedule Type Limits Name
    Through: 12/31,  For: AllDays,   Until: 24:00, 4;    !- Field 1

SCHEDULE:COMPACT,
    Always 1,                 !- Name
    ,                         !- Schedule Type Limits Name
    Through: 12/31,   For: AllDays,   Until: 24:00,    1;    !- Field 1

SCHEDULE:COMPACT,
    Always Radiator Temp Plus DB,    !- Name
    ,                         !- Schedule Type Limits Name
    Through: 12/31,   For: AllDays,   Until: 24:00,    85;    !- Field 1

SCHEDULE:COMPACT,
    Always Radiator Temp,     !- Name
    ,                         !- Schedule Type Limits Name
    Through: 12/31,   For: AllDays,   Until: 24:00,    80;    !- Field 1

SCHEDULE:COMPACT,
    45degrees,                !- Name
    Any Number,               !- Schedule Type Limits Name
    Through: 12/31,   For: AllDays,      Until: 24:00, 45;    !- Field 1

SCHEDULE:COMPACT,
    Living-Heating-Setpoints,    !- Name
    ,                         !- Schedule Type Limits Name
    Through: 12/31,
    For: AllDays,
    Until: 24:00, 20.00
;    !- Field 1

SCHEDULE:COMPACT,
    Living-Cooling-Setpoints,    !- Name
    ,                         !- Schedule Type Limits Name
    Through: 12/31,
    For: AllDays,
    Until: 24:00, 30.00
;    !- Field 1

SCHEDULE:COMPACT,
    Bedroom-Heating-Setpoints,    !- Name
    ,                         !- Schedule Type Limits Name
    Through: 12/31,
    For: AllDays,
    Until: 24:00, 20.00
;    !- Field 1

SCHEDULE:COMPACT,
    Bedroom-Cooling-Setpoints,    !- Name
    ,                         !- Schedule Type Limits Name
    Through: 12/31,
    For: AllDays,
    Until: 24:00, 30.00
;    !- Field 1

SCHEDULE:COMPACT,
    Main Hot Water Loop Temperature Schedule,    !- Name
    ,                         !- Schedule Type Limits Name
    Through: 12/31,   For: AllDays,    Until: 24:00,  80;    !- Field 1

SCHEDULE:COMPACT,
    DHW Main Hot Water Loop Temperature Schedule,    !- Name
    ,                         !- Schedule Type Limits Name
    Through: 12/31,   For: AllDays,    Until: 24:00,  45;    !- Field 1

SCHEDULE:COMPACT,
    Living DHW Flow Rate Fraction Schedule,    !- Name
    Limits Any Number,        !- Schedule Type Limits Name
    Through: 12/31,  For: AllDays,   Until: 8:00, 0,  Until:8:20, 0., Until:19:00,0, Until:19:20,0.,Until 24:00,0;    !- Field 1

SCHEDULE:COMPACT,
    Always-Schedule,          !- Name
    ,                         !- Schedule Type Limits Name
    Through: 12/31,
    For: AllDays,
    Until: 24:00, 1.0
;    !- Field 1

SCHEDULE:COMPACT,
    Activity-Schedule-Living,    !- Name
    ,                         !- Schedule Type Limits Name
    Through: 12/31,
    For: AllDays,
    Until: 24:00, 120.
;    !- Field 1

SCHEDULE:COMPACT,
    Activity-Schedule-Bedroom,    !- Name
    ,                         !- Schedule Type Limits Name
    Through: 12/31,
    For: AllDays,
    Until: 7:00, 80.,
    Until: 22:00, 120.,
    Until: 24:00, 80.,
;    !- Field 1

SCHEDULE:COMPACT,
    Heating-Setpoint-Schedule,    !- Name
    ,                         !- Schedule Type Limits Name
    Through: 12/31,
    For: AllDays,
    Until: 24:00, 20.
;    !- Field 1

SCHEDULE:COMPACT,
    Cooling-Setpoint-Schedule,    !- Name
    ,                         !- Schedule Type Limits Name
    Through: 12/31,
    For: AllDays,
    Until: 24:00, 25.
;    !- Field 1

SCHEDULE:COMPACT,
    Radiant-System-Schedule,    !- Name
    ,                         !- Schedule Type Limits Name
    Through: 12/31,
    For: AllDays,
    Until: 24:00, 20.
;    !- Field 1

SCHEDULE:COMPACT,
    Lighting-Schedule,        !- Name
    ,                         !- Schedule Type Limits Name
    Through: 4/15,
For: Alldays,
Until: 2:00, 0.4,
Until: 8:00, 0.0,
Until:10:00, 0.3,
Until:14:30, 0.0,
Until:22:00, 0.8,
Until:24:00, 0.5,
Through: 10/15,
For: Alldays,
Until: 2:00, 0.4,
Until:19:00, 0.0,
Until:22:00, 0.8,
Until:24:00, 0.5,
Through: 12/31,
For: Alldays,
Until: 2:00, 0.4,
Until: 8:00, 0.0,
Until:10:00, 0.3,
Until:14:30, 0.0,
Until:22:00, 0.8,
Until:24:00, 0.5;;    !- Field 1

SCHEDULE:COMPACT,
    Equipment-Schedule,       !- Name
    ,                         !- Schedule Type Limits Name
    Through: 1/31,
For: Alldays,
Until: 24:00, 0.38,
Through: 2/28,
For: Alldays,
Until: 24:00, 0.2,
Through: 11/30,
For: Alldays,
Until: 24:00, 0.1,
Through: 12/31,
For: Alldays,
Until: 24:00, 0.2;;    !- Field 1

SCHEDULE:CONSTANT,
    Outdoor CO2 Schedule,     !- Name
    ,                         !- Schedule Type Limits Name
    420;                      !- Hourly Value

SCHEDULE:FILE,
    Occupancy-Schedule-Living,    !- Name
    Fraction,                 !- Schedule Type Limits Name
    /workspaces/CUBES/exp/jack/Data/sky_sensing/occupancy_living.sch,    !- File Name
    1,                        !- Column Number
    0,                        !- Rows to Skip at Top
    8760,                     !- Number of Hours of Data
    Comma,                    !- Column Separator
    No,                       !- Interpolate to Timestep
    10;                       !- Minutes per Item

SCHEDULE:FILE,
    Occupancy-Schedule-Bedroom,    !- Name
    Fraction,                 !- Schedule Type Limits Name
    /workspaces/CUBES/exp/jack/Data/sky_sensing/occupancy_bedroom.sch,    !- File Name
    1,                        !- Column Number
    0,                        !- Rows to Skip at Top
    8760,                     !- Number of Hours of Data
    Comma,                    !- Column Separator
    No,                       !- Interpolate to Timestep
    10;                       !- Minutes per Item

SCHEDULE:FILE,
    Grid Carbon Intensity Schedule,    !- Name
    Any Number,               !- Schedule Type Limits Name
    /workspaces/CUBES/cubes/data/grid/grid_carbon_GB_10min_2022.csv,    !- File Name
    2,                        !- Column Number
    1,                        !- Rows to Skip at Top
    8760,                     !- Number of Hours of Data
    Comma,                    !- Column Separator
    yes,                      !- Interpolate to Timestep
    10;                       !- Minutes per Item

MATERIAL,
    Brickwork_outer_CODE-Wall-0.22,    !- Name
    Rough,                    !- Roughness
    0.22,                     !- Thickness
    0.76,                     !- Conductivity
    1700,                     !- Density
    800,                      !- Specific Heat
    0.9,                      !- Thermal Absorptance
    0.7,                      !- Solar Absorptance
    0.8;                      !- Visible Absorptance

MATERIAL,
    Singh_wall_insulation-Wall-0.1,    !- Name
    Smooth,                   !- Roughness
    0.1,                      !- Thickness
    0.035,                    !- Conductivity
    25,                       !- Density
    1000,                     !- Specific Heat
    0.9,                      !- Thermal Absorptance
    0.7,                      !- Solar Absorptance
    0.7;                      !- Visible Absorptance

MATERIAL,
    Plaster_dense_CODE-Wall-0.013,    !- Name
    Rough,                    !- Roughness
    0.013,                    !- Thickness
    0.1,                      !- Conductivity
    1300,                     !- Density
    1000,                     !- Specific Heat
    0.9,                      !- Thermal Absorptance
    0.5,                      !- Solar Absorptance
    0.5;                      !- Visible Absorptance

MATERIAL,
    F14_slate_or_tile_CODE-Roof-0.0127,    !- Name
    VeryRough,                !- Roughness
    0.0127,                   !- Thickness
    1.59,                     !- Conductivity
    1920,                     !- Density
    1260,                     !- Specific Heat
    0.9,                      !- Thermal Absorptance
    0.7,                      !- Solar Absorptance
    0.7;                      !- Visible Absorptance

MATERIAL,
    Joists_with_100mm_insulation_CODE-Roof-0.05,    !- Name
    MediumSmooth,             !- Roughness
    0.05,                     !- Thickness
    0.043,                    !- Conductivity
    71,                       !- Density
    170,                      !- Specific Heat
    0.9,                      !- Thermal Absorptance
    0.7,                      !- Solar Absorptance
    0.7;                      !- Visible Absorptance

MATERIAL,
    Painted_plaster_CODE-Roof-0.019,    !- Name
    MediumSmooth,             !- Roughness
    0.019,                    !- Thickness
    0.58,                     !- Conductivity
    800,                      !- Density
    1090,                     !- Specific Heat
    0.96,                     !- Thermal Absorptance
    0.92,                     !- Solar Absorptance
    0.92;                     !- Visible Absorptance

MATERIAL,
    Joists_CODE-GroundFloor-0.12,    !- Name
    MediumSmooth,             !- Roughness
    0.12,                     !- Thickness
    1.5,                      !- Conductivity
    60,                       !- Density
    170,                      !- Specific Heat
    0.9,                      !- Thermal Absorptance
    0.7,                      !- Solar Absorptance
    0.7;                      !- Visible Absorptance

MATERIAL,
    Floor_boards_CODE-GroundFloor-0.018,    !- Name
    MediumSmooth,             !- Roughness
    0.018,                    !- Thickness
    0.17,                     !- Conductivity
    600,                      !- Density
    1700,                     !- Specific Heat
    0.9,                      !- Thermal Absorptance
    0.7,                      !- Solar Absorptance
    0.7;                      !- Visible Absorptance

MATERIAL,
    Painted_plaster_CODE-Floor-0.013,    !- Name
    MediumSmooth,             !- Roughness
    0.013,                    !- Thickness
    0.58,                     !- Conductivity
    800,                      !- Density
    1090,                     !- Specific Heat
    0.96,                     !- Thermal Absorptance
    0.92,                     !- Solar Absorptance
    0.92;                     !- Visible Absorptance

MATERIAL,
    Joists_CODE-Floor-0.12,    !- Name
    MediumSmooth,             !- Roughness
    0.12,                     !- Thickness
    1.5,                      !- Conductivity
    60,                       !- Density
    170,                      !- Specific Heat
    0.9,                      !- Thermal Absorptance
    0.7,                      !- Solar Absorptance
    0.7;                      !- Visible Absorptance

MATERIAL,
    Floor_boards_CODE-Floor-0.018,    !- Name
    MediumSmooth,             !- Roughness
    0.018,                    !- Thickness
    0.17,                     !- Conductivity
    600,                      !- Density
    1700,                     !- Specific Heat
    0.9,                      !- Thermal Absorptance
    0.7,                      !- Solar Absorptance
    0.7;                      !- Visible Absorptance

MATERIAL,
    Brick_CODE-InternalWall-0.22,    !- Name
    MediumRough,              !- Roughness
    0.22,                     !- Thickness
    0.72,                     !- Conductivity
    1920,                     !- Density
    835,                      !- Specific Heat
    0.9,                      !- Thermal Absorptance
    0.93,                     !- Solar Absorptance
    0.93;                     !- Visible Absorptance

MATERIAL,
    Painted_plaster_CODE-InternalWall-0.0027,    !- Name
    MediumSmooth,             !- Roughness
    0.0027,                   !- Thickness
    0.58,                     !- Conductivity
    800,                      !- Density
    1090,                     !- Specific Heat
    0.96,                     !- Thermal Absorptance
    0.92,                     !- Solar Absorptance
    0.92;                     !- Visible Absorptance

MATERIAL,
    Wood_plastic_CODE-Furniture-0.0254,    !- Name
    Smooth,                   !- Roughness
    0.0254,                   !- Thickness
    0.5,                      !- Conductivity
    800,                      !- Density
    1400,                     !- Specific Heat
    0.95,                     !- Thermal Absorptance
    0.78,                     !- Solar Absorptance
    0.78;                     !- Visible Absorptance

MATERIAL,
    Alluvial_clay_CODE-SubFloor-0.5,    !- Name
    Rough,                    !- Roughness
    0.5,                      !- Thickness
    1.21,                     !- Conductivity
    1960,                     !- Density
    840,                      !- Specific Heat
    0.9,                      !- Thermal Absorptance
    0.7,                      !- Solar Absorptance
    0.7;                      !- Visible Absorptance

MATERIAL:NOMASS,
    Carpet_and_fibrous_pad_CODE-GroundFloor-0.01,    !- Name
    Rough,                    !- Roughness
    0.37,                     !- Thermal Resistance
    0.95,                     !- Thermal Absorptance
    0.7,                      !- Solar Absorptance
    0.7;                      !- Visible Absorptance

MATERIAL:NOMASS,
    Carpet_and_fibrous_pad_CODE-Floor-0.01,    !- Name
    Rough,                    !- Roughness
    0.37,                     !- Thermal Resistance
    0.95,                     !- Thermal Absorptance
    0.7,                      !- Solar Absorptance
    0.7;                      !- Visible Absorptance

WINDOWMATERIAL:GLAZING,
    Clear_6mm_CODE,           !- Name
    SpectralAverage,          !- Optical Data Type
    ,                         !- Window Glass Spectral Data Set Name
    0.006,                    !- Thickness
    0.775,                    !- Solar Transmittance at Normal Incidence
    0.071,                    !- Front Side Solar Reflectance at Normal Incidence
    0.071,                    !- Back Side Solar Reflectance at Normal Incidence
    0.881,                    !- Visible Transmittance at Normal Incidence
    0.08,                     !- Front Side Visible Reflectance at Normal Incidence
    0.08,                     !- Back Side Visible Reflectance at Normal Incidence
    0,                        !- Infrared Transmittance at Normal Incidence
    0.84,                     !- Front Side Infrared Hemispherical Emissivity
    0.84,                     !- Back Side Infrared Hemispherical Emissivity
    0.9,                      !- Conductivity
    1,                        !- Dirt Correction Factor for Solar and Visible Transmittance
    No,                       !- Solar Diffusing
    72000000000,              !- Youngs modulus
    0.22;                     !- Poissons ratio

WINDOWMATERIAL:GAS,
    Air,                      !- Name
    Air,                      !- Gas Type
    0.008;                    !- Thickness

CONSTRUCTION,
    Wall-Construction,        !- Name
    Brickwork_outer_CODE-Wall-0.22,    !- Outside Layer
    Singh_wall_insulation-Wall-0.1,    !- Layer 2
    Plaster_dense_CODE-Wall-0.013;    !- Layer 3

CONSTRUCTION,
    Roof-Construction,        !- Name
    F14_slate_or_tile_CODE-Roof-0.0127,    !- Outside Layer
    Joists_with_100mm_insulation_CODE-Roof-0.05,    !- Layer 2
    Painted_plaster_CODE-Roof-0.019;    !- Layer 3

CONSTRUCTION,
    GroundFloor-Construction,    !- Name
    Joists_CODE-GroundFloor-0.12,    !- Outside Layer
    Floor_boards_CODE-GroundFloor-0.018,    !- Layer 2
    Carpet_and_fibrous_pad_CODE-GroundFloor-0.01;    !- Layer 3

CONSTRUCTION,
    Floor-Construction,       !- Name
    Painted_plaster_CODE-Floor-0.013,    !- Outside Layer
    Joists_CODE-Floor-0.12,    !- Layer 2
    Floor_boards_CODE-Floor-0.018,    !- Layer 3
    Carpet_and_fibrous_pad_CODE-Floor-0.01;    !- Layer 4

CONSTRUCTION,
    Ceiling-Construction,     !- Name
    Carpet_and_fibrous_pad_CODE-floor-0.01,    !- Outside Layer
    Floor_boards_CODE-floor-0.018,    !- Layer 2
    Joists_CODE-floor-0.12,    !- Layer 3
    Painted_plaster_CODE-floor-0.013;    !- Layer 4

CONSTRUCTION,
    InternalWall-Construction,    !- Name
    Painted_plaster_CODE-InternalWall-0.0027,    !- Outside Layer
    Brick_CODE-InternalWall-0.22,    !- Layer 2
    Painted_plaster_CODE-InternalWall-0.0027;    !- Layer 3

CONSTRUCTION,
    Furniture-Construction,    !- Name
    Wood_plastic_CODE-Furniture-0.0254;    !- Outside Layer

CONSTRUCTION,
    SubFloor-Construction,    !- Name
    Alluvial_clay_CODE-SubFloor-0.5;    !- Outside Layer

CONSTRUCTION,
    Double Glazing ,          !- Name
    Clear_6mm_CODE,           !- Outside Layer
    Air,                      !- Layer 2
    Clear_6mm_CODE;           !- Layer 3

GlobalGeometryRules,
    UpperLeftCorner,          !- Starting Vertex Position
    CounterClockWise,         !- Vertex Entry Direction
    Relative;                 !- Coordinate System

ZONE,
    Living,                   !- Name
    0,                        !- Direction of Relative North
    0,                        !- X Origin
    0,                        !- Y Origin
    0,                        !- Z Origin
    1,                        !- Type
    1,                        !- Multiplier
    autocalculate,            !- Ceiling Height
    autocalculate,            !- Volume
    autocalculate,            !- Floor Area
    ,                         !- Zone Inside Convection Algorithm
    ,                         !- Zone Outside Convection Algorithm
    Yes;                      !- Part of Total Floor Area

ZONE,
    Bedroom,                  !- Name
    0,                        !- Direction of Relative North
    0,                        !- X Origin
    0,                        !- Y Origin
    0,                        !- Z Origin
    1,                        !- Type
    1,                        !- Multiplier
    autocalculate,            !- Ceiling Height
    autocalculate,            !- Volume
    autocalculate,            !- Floor Area
    ,                         !- Zone Inside Convection Algorithm
    ,                         !- Zone Outside Convection Algorithm
    Yes;                      !- Part of Total Floor Area

ZONE,
    Loft,                     !- Name
    0,                        !- Direction of Relative North
    0,                        !- X Origin
    0,                        !- Y Origin
    0,                        !- Z Origin
    1,                        !- Type
    1,                        !- Multiplier
    autocalculate,            !- Ceiling Height
    autocalculate,            !- Volume
    autocalculate,            !- Floor Area
    ,                         !- Zone Inside Convection Algorithm
    ,                         !- Zone Outside Convection Algorithm
    Yes;                      !- Part of Total Floor Area

BUILDINGSURFACE:DETAILED,
    Storey 1 North Wall Living,    !- Name
    Wall,                     !- Surface Type
    Wall-Construction,        !- Construction Name
    Living,                   !- Zone Name
    Adiabatic,                !- Outside Boundary Condition
    ,                         !- Outside Boundary Condition Object
    NoSun,                    !- Sun Exposure
    NoWind,                   !- Wind Exposure
    0.5,                      !- View Factor to Ground
    4,                        !- Number of Vertices
    6.4,                      !- Vertex 1 Xcoordinate
    5.3,                      !- Vertex 1 Ycoordinate
    2.7,                      !- Vertex 1 Zcoordinate
    6.4,                      !- Vertex 2 Xcoordinate
    5.3,                      !- Vertex 2 Ycoordinate
    0,                        !- Vertex 2 Zcoordinate
    0,                        !- Vertex 3 Xcoordinate
    5.3,                      !- Vertex 3 Ycoordinate
    0,                        !- Vertex 3 Zcoordinate
    0,                        !- Vertex 4 Xcoordinate
    5.3,                      !- Vertex 4 Ycoordinate
    2.7;                      !- Vertex 4 Zcoordinate

BUILDINGSURFACE:DETAILED,
    Storey 1 East Wall Living,    !- Name
    Wall,                     !- Surface Type
    Wall-Construction,        !- Construction Name
    Living,                   !- Zone Name
    Outdoors,                 !- Outside Boundary Condition
    ,                         !- Outside Boundary Condition Object
    SunExposed,               !- Sun Exposure
    WindExposed,              !- Wind Exposure
    0.5,                      !- View Factor to Ground
    4,                        !- Number of Vertices
    6.4,                      !- Vertex 1 Xcoordinate
    0,                        !- Vertex 1 Ycoordinate
    2.7,                      !- Vertex 1 Zcoordinate
    6.4,                      !- Vertex 2 Xcoordinate
    0,                        !- Vertex 2 Ycoordinate
    0,                        !- Vertex 2 Zcoordinate
    6.4,                      !- Vertex 3 Xcoordinate
    5.3,                      !- Vertex 3 Ycoordinate
    0,                        !- Vertex 3 Zcoordinate
    6.4,                      !- Vertex 4 Xcoordinate
    5.3,                      !- Vertex 4 Ycoordinate
    2.7;                      !- Vertex 4 Zcoordinate

BUILDINGSURFACE:DETAILED,
    Storey 1 South Wall Living,    !- Name
    Wall,                     !- Surface Type
    Wall-Construction,        !- Construction Name
    Living,                   !- Zone Name
    Adiabatic,                !- Outside Boundary Condition
    ,                         !- Outside Boundary Condition Object
    NoSun,                    !- Sun Exposure
    NoWind,                   !- Wind Exposure
    0.5,                      !- View Factor to Ground
    4,                        !- Number of Vertices
    0,                        !- Vertex 1 Xcoordinate
    0,                        !- Vertex 1 Ycoordinate
    2.7,                      !- Vertex 1 Zcoordinate
    0,                        !- Vertex 2 Xcoordinate
    0,                        !- Vertex 2 Ycoordinate
    0,                        !- Vertex 2 Zcoordinate
    6.4,                      !- Vertex 3 Xcoordinate
    0,                        !- Vertex 3 Ycoordinate
    0,                        !- Vertex 3 Zcoordinate
    6.4,                      !- Vertex 4 Xcoordinate
    0,                        !- Vertex 4 Ycoordinate
    2.7;                      !- Vertex 4 Zcoordinate

BUILDINGSURFACE:DETAILED,
    Storey 1 West Wall Living,    !- Name
    Wall,                     !- Surface Type
    Wall-Construction,        !- Construction Name
    Living,                   !- Zone Name
    Outdoors,                 !- Outside Boundary Condition
    ,                         !- Outside Boundary Condition Object
    SunExposed,               !- Sun Exposure
    WindExposed,              !- Wind Exposure
    0.5,                      !- View Factor to Ground
    4,                        !- Number of Vertices
    0,                        !- Vertex 1 Xcoordinate
    5.3,                      !- Vertex 1 Ycoordinate
    2.7,                      !- Vertex 1 Zcoordinate
    0,                        !- Vertex 2 Xcoordinate
    5.3,                      !- Vertex 2 Ycoordinate
    0,                        !- Vertex 2 Zcoordinate
    0,                        !- Vertex 3 Xcoordinate
    0,                        !- Vertex 3 Ycoordinate
    0,                        !- Vertex 3 Zcoordinate
    0,                        !- Vertex 4 Xcoordinate
    0,                        !- Vertex 4 Ycoordinate
    2.7;                      !- Vertex 4 Zcoordinate

BUILDINGSURFACE:DETAILED,
    Storey 2 North Wall Living,    !- Name
    Wall,                     !- Surface Type
    Wall-Construction,        !- Construction Name
    Living,                   !- Zone Name
    Adiabatic,                !- Outside Boundary Condition
    ,                         !- Outside Boundary Condition Object
    NoSun,                    !- Sun Exposure
    NoWind,                   !- Wind Exposure
    0.5,                      !- View Factor to Ground
    4,                        !- Number of Vertices
    2.5600000000000005,       !- Vertex 1 Xcoordinate
    5.3,                      !- Vertex 1 Ycoordinate
    5.4,                      !- Vertex 1 Zcoordinate
    2.5600000000000005,       !- Vertex 2 Xcoordinate
    5.3,                      !- Vertex 2 Ycoordinate
    2.7,                      !- Vertex 2 Zcoordinate
    0,                        !- Vertex 3 Xcoordinate
    5.3,                      !- Vertex 3 Ycoordinate
    2.7,                      !- Vertex 3 Zcoordinate
    0,                        !- Vertex 4 Xcoordinate
    5.3,                      !- Vertex 4 Ycoordinate
    5.4;                      !- Vertex 4 Zcoordinate

BUILDINGSURFACE:DETAILED,
    Storey 2 South Wall Living,    !- Name
    Wall,                     !- Surface Type
    Wall-Construction,        !- Construction Name
    Living,                   !- Zone Name
    Adiabatic,                !- Outside Boundary Condition
    ,                         !- Outside Boundary Condition Object
    NoSun,                    !- Sun Exposure
    NoWind,                   !- Wind Exposure
    0.5,                      !- View Factor to Ground
    4,                        !- Number of Vertices
    0,                        !- Vertex 1 Xcoordinate
    0,                        !- Vertex 1 Ycoordinate
    5.4,                      !- Vertex 1 Zcoordinate
    0,                        !- Vertex 2 Xcoordinate
    0,                        !- Vertex 2 Ycoordinate
    2.7,                      !- Vertex 2 Zcoordinate
    2.5600000000000005,       !- Vertex 3 Xcoordinate
    0,                        !- Vertex 3 Ycoordinate
    2.7,                      !- Vertex 3 Zcoordinate
    2.5600000000000005,       !- Vertex 4 Xcoordinate
    0,                        !- Vertex 4 Ycoordinate
    5.4;                      !- Vertex 4 Zcoordinate

BUILDINGSURFACE:DETAILED,
    Storey 2 West Wall Living,    !- Name
    Wall,                     !- Surface Type
    Wall-Construction,        !- Construction Name
    Living,                   !- Zone Name
    Outdoors,                 !- Outside Boundary Condition
    ,                         !- Outside Boundary Condition Object
    SunExposed,               !- Sun Exposure
    WindExposed,              !- Wind Exposure
    0.5,                      !- View Factor to Ground
    4,                        !- Number of Vertices
    0,                        !- Vertex 1 Xcoordinate
    5.3,                      !- Vertex 1 Ycoordinate
    5.4,                      !- Vertex 1 Zcoordinate
    0,                        !- Vertex 2 Xcoordinate
    5.3,                      !- Vertex 2 Ycoordinate
    2.7,                      !- Vertex 2 Zcoordinate
    0,                        !- Vertex 3 Xcoordinate
    0,                        !- Vertex 3 Ycoordinate
    2.7,                      !- Vertex 3 Zcoordinate
    0,                        !- Vertex 4 Xcoordinate
    0,                        !- Vertex 4 Ycoordinate
    5.4;                      !- Vertex 4 Zcoordinate

BUILDINGSURFACE:DETAILED,
    Storey 2 Internal Wall Living-Bedroom,    !- Name
    Wall,                     !- Surface Type
    InternalWall-Construction,    !- Construction Name
    Living,                   !- Zone Name
    Zone,                     !- Outside Boundary Condition
    Bedroom,                  !- Outside Boundary Condition Object
    NoSun,                    !- Sun Exposure
    NoWind,                   !- Wind Exposure
    0.5,                      !- View Factor to Ground
    4,                        !- Number of Vertices
    2.5600000000000005,       !- Vertex 1 Xcoordinate
    0,                        !- Vertex 1 Ycoordinate
    5.4,                      !- Vertex 1 Zcoordinate
    2.5600000000000005,       !- Vertex 2 Xcoordinate
    0,                        !- Vertex 2 Ycoordinate
    2.7,                      !- Vertex 2 Zcoordinate
    2.5600000000000005,       !- Vertex 3 Xcoordinate
    5.3,                      !- Vertex 3 Ycoordinate
    2.7,                      !- Vertex 3 Zcoordinate
    2.5600000000000005,       !- Vertex 4 Xcoordinate
    5.3,                      !- Vertex 4 Ycoordinate
    5.4;                      !- Vertex 4 Zcoordinate

BUILDINGSURFACE:DETAILED,
    Storey 2 North Wall Bedroom,    !- Name
    Wall,                     !- Surface Type
    Wall-Construction,        !- Construction Name
    Bedroom,                  !- Zone Name
    Adiabatic,                !- Outside Boundary Condition
    ,                         !- Outside Boundary Condition Object
    NoSun,                    !- Sun Exposure
    NoWind,                   !- Wind Exposure
    0.5,                      !- View Factor to Ground
    4,                        !- Number of Vertices
    6.4,                      !- Vertex 1 Xcoordinate
    5.3,                      !- Vertex 1 Ycoordinate
    5.4,                      !- Vertex 1 Zcoordinate
    6.4,                      !- Vertex 2 Xcoordinate
    5.3,                      !- Vertex 2 Ycoordinate
    2.7,                      !- Vertex 2 Zcoordinate
    2.5600000000000005,       !- Vertex 3 Xcoordinate
    5.3,                      !- Vertex 3 Ycoordinate
    2.7,                      !- Vertex 3 Zcoordinate
    2.5600000000000005,       !- Vertex 4 Xcoordinate
    5.3,                      !- Vertex 4 Ycoordinate
    5.4;                      !- Vertex 4 Zcoordinate

BUILDINGSURFACE:DETAILED,
    Storey 2 South Wall Bedroom,    !- Name
    Wall,                     !- Surface Type
    Wall-Construction,        !- Construction Name
    Bedroom,                  !- Zone Name
    Adiabatic,                !- Outside Boundary Condition
    ,                         !- Outside Boundary Condition Object
    NoSun,                    !- Sun Exposure
    NoWind,                   !- Wind Exposure
    0.5,                      !- View Factor to Ground
    4,                        !- Number of Vertices
    2.5600000000000005,       !- Vertex 1 Xcoordinate
    0,                        !- Vertex 1 Ycoordinate
    5.4,                      !- Vertex 1 Zcoordinate
    2.5600000000000005,       !- Vertex 2 Xcoordinate
    0,                        !- Vertex 2 Ycoordinate
    2.7,                      !- Vertex 2 Zcoordinate
    6.4,                      !- Vertex 3 Xcoordinate
    0,                        !- Vertex 3 Ycoordinate
    2.7,                      !- Vertex 3 Zcoordinate
    6.4,                      !- Vertex 4 Xcoordinate
    0,                        !- Vertex 4 Ycoordinate
    5.4;                      !- Vertex 4 Zcoordinate

BUILDINGSURFACE:DETAILED,
    Storey 2 East Wall Bedroom,    !- Name
    Wall,                     !- Surface Type
    Wall-Construction,        !- Construction Name
    Bedroom,                  !- Zone Name
    Outdoors,                 !- Outside Boundary Condition
    ,                         !- Outside Boundary Condition Object
    SunExposed,               !- Sun Exposure
    WindExposed,              !- Wind Exposure
    0.5,                      !- View Factor to Ground
    4,                        !- Number of Vertices
    6.4,                      !- Vertex 1 Xcoordinate
    0,                        !- Vertex 1 Ycoordinate
    5.4,                      !- Vertex 1 Zcoordinate
    6.4,                      !- Vertex 2 Xcoordinate
    0,                        !- Vertex 2 Ycoordinate
    2.7,                      !- Vertex 2 Zcoordinate
    6.4,                      !- Vertex 3 Xcoordinate
    5.3,                      !- Vertex 3 Ycoordinate
    2.7,                      !- Vertex 3 Zcoordinate
    6.4,                      !- Vertex 4 Xcoordinate
    5.3,                      !- Vertex 4 Ycoordinate
    5.4;                      !- Vertex 4 Zcoordinate

BUILDINGSURFACE:DETAILED,
    Storey 1  Floor Living-Ground,    !- Name
    Floor,                    !- Surface Type
    GroundFloor-Construction,    !- Construction Name
    Living,                   !- Zone Name
    Ground,                   !- Outside Boundary Condition
    ,                         !- Outside Boundary Condition Object
    NoSun,                    !- Sun Exposure
    NoWind,                   !- Wind Exposure
    1,                        !- View Factor to Ground
    4,                        !- Number of Vertices
    0,                        !- Vertex 1 Xcoordinate
    0,                        !- Vertex 1 Ycoordinate
    0,                        !- Vertex 1 Zcoordinate
    0,                        !- Vertex 2 Xcoordinate
    5.3,                      !- Vertex 2 Ycoordinate
    0,                        !- Vertex 2 Zcoordinate
    6.4,                      !- Vertex 3 Xcoordinate
    5.3,                      !- Vertex 3 Ycoordinate
    0,                        !- Vertex 3 Zcoordinate
    6.4,                      !- Vertex 4 Xcoordinate
    0,                        !- Vertex 4 Ycoordinate
    0;                        !- Vertex 4 Zcoordinate

BUILDINGSURFACE:DETAILED,
    Storey 2  Floor Bedroom-Living,    !- Name
    Floor,                    !- Surface Type
    Floor-Construction,       !- Construction Name
    Bedroom,                  !- Zone Name
    Zone,                     !- Outside Boundary Condition
    Living,                   !- Outside Boundary Condition Object
    NoSun,                    !- Sun Exposure
    NoWind,                   !- Wind Exposure
    1,                        !- View Factor to Ground
    4,                        !- Number of Vertices
    2.5600000000000005,       !- Vertex 1 Xcoordinate
    0,                        !- Vertex 1 Ycoordinate
    2.7,                      !- Vertex 1 Zcoordinate
    2.5600000000000005,       !- Vertex 2 Xcoordinate
    5.3,                      !- Vertex 2 Ycoordinate
    2.7,                      !- Vertex 2 Zcoordinate
    6.4,                      !- Vertex 3 Xcoordinate
    5.3,                      !- Vertex 3 Ycoordinate
    2.7,                      !- Vertex 3 Zcoordinate
    6.4,                      !- Vertex 4 Xcoordinate
    0,                        !- Vertex 4 Ycoordinate
    2.7;                      !- Vertex 4 Zcoordinate

BUILDINGSURFACE:DETAILED,
    storey 2 Living ceiling,    !- Name
    ceiling,                  !- Surface Type
    Ceiling-Construction,     !- Construction Name
    Living,                   !- Zone Name
    Zone,                     !- Outside Boundary Condition
    Loft,                     !- Outside Boundary Condition Object
    NoSun,                    !- Sun Exposure
    NoWind,                   !- Wind Exposure
    0,                        !- View Factor to Ground
    4,                        !- Number of Vertices
    0,                        !- Vertex 1 Xcoordinate
    0,                        !- Vertex 1 Ycoordinate
    5.4,                      !- Vertex 1 Zcoordinate
    2.5600000000000005,       !- Vertex 2 Xcoordinate
    0,                        !- Vertex 2 Ycoordinate
    5.4,                      !- Vertex 2 Zcoordinate
    2.5600000000000005,       !- Vertex 3 Xcoordinate
    5.3,                      !- Vertex 3 Ycoordinate
    5.4,                      !- Vertex 3 Zcoordinate
    0,                        !- Vertex 4 Xcoordinate
    5.3,                      !- Vertex 4 Ycoordinate
    5.4;                      !- Vertex 4 Zcoordinate

BUILDINGSURFACE:DETAILED,
    storey 2 Bedroom ceiling,    !- Name
    ceiling,                  !- Surface Type
    Ceiling-Construction,     !- Construction Name
    Bedroom,                  !- Zone Name
    Zone,                     !- Outside Boundary Condition
    Loft,                     !- Outside Boundary Condition Object
    NoSun,                    !- Sun Exposure
    NoWind,                   !- Wind Exposure
    0,                        !- View Factor to Ground
    4,                        !- Number of Vertices
    2.5600000000000005,       !- Vertex 1 Xcoordinate
    0,                        !- Vertex 1 Ycoordinate
    5.4,                      !- Vertex 1 Zcoordinate
    6.4,                      !- Vertex 2 Xcoordinate
    0,                        !- Vertex 2 Ycoordinate
    5.4,                      !- Vertex 2 Zcoordinate
    6.4,                      !- Vertex 3 Xcoordinate
    5.3,                      !- Vertex 3 Ycoordinate
    5.4,                      !- Vertex 3 Zcoordinate
    2.5600000000000005,       !- Vertex 4 Xcoordinate
    5.3,                      !- Vertex 4 Ycoordinate
    5.4;                      !- Vertex 4 Zcoordinate

BUILDINGSURFACE:DETAILED,
    roof surface 1,           !- Name
    ROOF,                     !- Surface Type
    Roof-Construction,        !- Construction Name
    Loft,                     !- Zone Name
    Outdoors,                 !- Outside Boundary Condition
    ,                         !- Outside Boundary Condition Object
    SunExposed,               !- Sun Exposure
    WindExposed,              !- Wind Exposure
    autocalculate,            !- View Factor to Ground
    autocalculate,            !- Number of Vertices
    3.2,                      !- Vertex 1 Xcoordinate
    0,                        !- Vertex 1 Ycoordinate
    8.100000000000001,        !- Vertex 1 Zcoordinate
    6.4,                      !- Vertex 2 Xcoordinate
    0,                        !- Vertex 2 Ycoordinate
    5.4,                      !- Vertex 2 Zcoordinate
    6.4,                      !- Vertex 3 Xcoordinate
    5.3,                      !- Vertex 3 Ycoordinate
    5.4,                      !- Vertex 3 Zcoordinate
    3.2,                      !- Vertex 4 Xcoordinate
    5.3,                      !- Vertex 4 Ycoordinate
    8.100000000000001;        !- Vertex 4 Zcoordinate

BUILDINGSURFACE:DETAILED,
    roof surface 2,           !- Name
    ROOF,                     !- Surface Type
    Roof-Construction,        !- Construction Name
    Loft,                     !- Zone Name
    Outdoors,                 !- Outside Boundary Condition
    ,                         !- Outside Boundary Condition Object
    SunExposed,               !- Sun Exposure
    WindExposed,              !- Wind Exposure
    autocalculate,            !- View Factor to Ground
    autocalculate,            !- Number of Vertices
    3.2,                      !- Vertex 1 Xcoordinate
    5.3,                      !- Vertex 1 Ycoordinate
    8.100000000000001,        !- Vertex 1 Zcoordinate
    0,                        !- Vertex 2 Xcoordinate
    5.3,                      !- Vertex 2 Ycoordinate
    5.4,                      !- Vertex 2 Zcoordinate
    0,                        !- Vertex 3 Xcoordinate
    0,                        !- Vertex 3 Ycoordinate
    5.4,                      !- Vertex 3 Zcoordinate
    3.2,                      !- Vertex 4 Xcoordinate
    0,                        !- Vertex 4 Ycoordinate
    8.100000000000001;        !- Vertex 4 Zcoordinate

BUILDINGSURFACE:DETAILED,
    loft side wall 1,         !- Name
    WALL,                     !- Surface Type
    Wall-Construction,        !- Construction Name
    Loft,                     !- Zone Name
    Adiabatic,                !- Outside Boundary Condition
    ,                         !- Outside Boundary Condition Object
    NoSun,                    !- Sun Exposure
    NoWind,                   !- Wind Exposure
    autocalculate,            !- View Factor to Ground
    3,                        !- Number of Vertices
    3.2,                      !- Vertex 1 Xcoordinate
    0,                        !- Vertex 1 Ycoordinate
    8.100000000000001,        !- Vertex 1 Zcoordinate
    0,                        !- Vertex 2 Xcoordinate
    0,                        !- Vertex 2 Ycoordinate
    5.4,                      !- Vertex 2 Zcoordinate
    6.4,                      !- Vertex 3 Xcoordinate
    0,                        !- Vertex 3 Ycoordinate
    5.4;                      !- Vertex 3 Zcoordinate

BUILDINGSURFACE:DETAILED,
    loft side wall 2,         !- Name
    WALL,                     !- Surface Type
    Wall-Construction,        !- Construction Name
    Loft,                     !- Zone Name
    Adiabatic,                !- Outside Boundary Condition
    ,                         !- Outside Boundary Condition Object
    NoSun,                    !- Sun Exposure
    NoWind,                   !- Wind Exposure
    autocalculate,            !- View Factor to Ground
    3,                        !- Number of Vertices
    3.2,                      !- Vertex 1 Xcoordinate
    5.3,                      !- Vertex 1 Ycoordinate
    8.100000000000001,        !- Vertex 1 Zcoordinate
    6.4,                      !- Vertex 2 Xcoordinate
    5.3,                      !- Vertex 2 Ycoordinate
    5.4,                      !- Vertex 2 Zcoordinate
    0,                        !- Vertex 3 Xcoordinate
    5.3,                      !- Vertex 3 Ycoordinate
    5.4;                      !- Vertex 3 Zcoordinate

FENESTRATIONSURFACE:DETAILED,
    Storey 1 West Wall Living-Window,    !- Name
    Window,                   !- Surface Type
    Double Glazing ,          !- Construction Name
    Storey 1 West Wall Living,    !- Building Surface Name
    ,                         !- Outside Boundary Condition Object
    autocalculate,            !- View Factor to Ground
    ,                         !- Frame and Divider Name
    1.0,                      !- Multiplier
    4,                        !- Number of Vertices
    0,                        !- Vertex 1 Xcoordinate
    5.3,                      !- Vertex 1 Ycoordinate
    1.7550000000000003,       !- Vertex 1 Zcoordinate
    0,                        !- Vertex 2 Xcoordinate
    5.3,                      !- Vertex 2 Ycoordinate
    0.945,                    !- Vertex 2 Zcoordinate
    0,                        !- Vertex 3 Xcoordinate
    0,                        !- Vertex 3 Ycoordinate
    0.945,                    !- Vertex 3 Zcoordinate
    0,                        !- Vertex 4 Xcoordinate
    0,                        !- Vertex 4 Ycoordinate
    1.7550000000000003;       !- Vertex 4 Zcoordinate

FENESTRATIONSURFACE:DETAILED,
    Storey 1 East Wall Living-Window,    !- Name
    Window,                   !- Surface Type
    Double Glazing ,          !- Construction Name
    Storey 1 East Wall Living,    !- Building Surface Name
    ,                         !- Outside Boundary Condition Object
    autocalculate,            !- View Factor to Ground
    ,                         !- Frame and Divider Name
    1.0,                      !- Multiplier
    4,                        !- Number of Vertices
    6.4,                      !- Vertex 1 Xcoordinate
    0,                        !- Vertex 1 Ycoordinate
    1.7550000000000003,       !- Vertex 1 Zcoordinate
    6.4,                      !- Vertex 2 Xcoordinate
    0,                        !- Vertex 2 Ycoordinate
    0.945,                    !- Vertex 2 Zcoordinate
    6.4,                      !- Vertex 3 Xcoordinate
    5.3,                      !- Vertex 3 Ycoordinate
    0.945,                    !- Vertex 3 Zcoordinate
    6.4,                      !- Vertex 4 Xcoordinate
    5.3,                      !- Vertex 4 Ycoordinate
    1.7550000000000003;       !- Vertex 4 Zcoordinate

FENESTRATIONSURFACE:DETAILED,
    Storey 2 West Wall Living-Window,    !- Name
    Window,                   !- Surface Type
    Double Glazing ,          !- Construction Name
    Storey 2 West Wall Living,    !- Building Surface Name
    ,                         !- Outside Boundary Condition Object
    autocalculate,            !- View Factor to Ground
    ,                         !- Frame and Divider Name
    1.0,                      !- Multiplier
    4,                        !- Number of Vertices
    0,                        !- Vertex 1 Xcoordinate
    5.3,                      !- Vertex 1 Ycoordinate
    4.455,                    !- Vertex 1 Zcoordinate
    0,                        !- Vertex 2 Xcoordinate
    5.3,                      !- Vertex 2 Ycoordinate
    3.645,                    !- Vertex 2 Zcoordinate
    0,                        !- Vertex 3 Xcoordinate
    0,                        !- Vertex 3 Ycoordinate
    3.645,                    !- Vertex 3 Zcoordinate
    0,                        !- Vertex 4 Xcoordinate
    0,                        !- Vertex 4 Ycoordinate
    4.455;                    !- Vertex 4 Zcoordinate

FENESTRATIONSURFACE:DETAILED,
    Storey 2 East Wall Bedroom-Window,    !- Name
    Window,                   !- Surface Type
    Double Glazing ,          !- Construction Name
    Storey 2 East Wall Bedroom,    !- Building Surface Name
    ,                         !- Outside Boundary Condition Object
    autocalculate,            !- View Factor to Ground
    ,                         !- Frame and Divider Name
    1.0,                      !- Multiplier
    4,                        !- Number of Vertices
    6.4,                      !- Vertex 1 Xcoordinate
    0,                        !- Vertex 1 Ycoordinate
    4.455,                    !- Vertex 1 Zcoordinate
    6.4,                      !- Vertex 2 Xcoordinate
    0,                        !- Vertex 2 Ycoordinate
    3.645,                    !- Vertex 2 Zcoordinate
    6.4,                      !- Vertex 3 Xcoordinate
    5.3,                      !- Vertex 3 Ycoordinate
    3.645,                    !- Vertex 3 Zcoordinate
    6.4,                      !- Vertex 4 Xcoordinate
    5.3,                      !- Vertex 4 Ycoordinate
    4.455;                    !- Vertex 4 Zcoordinate

INTERNALMASS,
    IntMass-Floor-Living-Living-storey-2,    !- Name
    Floor-Construction,       !- Construction Name
    Living,                   !- Zone or ZoneList Name
    13.568000000000001;       !- Surface Area

INTERNALMASS,
    IntMass-Ceiling-Living-Living-storey-2,    !- Name
    Ceiling-Construction,     !- Construction Name
    Living,                   !- Zone or ZoneList Name
    13.568000000000001;       !- Surface Area

INTERNALMASS,
    IntMass-Partitions-Living,    !- Name
    InternalWall-Construction,    !- Construction Name
    Living,                   !- Zone or ZoneList Name
    47.488;                   !- Surface Area

INTERNALMASS,
    IntMass-Furniture-Living,    !- Name
    Furniture-Construction,    !- Construction Name
    Living,                   !- Zone or ZoneList Name
    50.07874015748032;        !- Surface Area

INTERNALMASS,
    IntMass-Partitions-Bedroom,    !- Name
    InternalWall-Construction,    !- Construction Name
    Bedroom,                  !- Zone or ZoneList Name
    20.352;                   !- Surface Area

INTERNALMASS,
    IntMass-Furniture-Bedroom,    !- Name
    Furniture-Construction,    !- Construction Name
    Bedroom,                  !- Zone or ZoneList Name
    21.462317210348708;       !- Surface Area

SHADING:BUILDING,
    NEIGHBOUR-L2-X-2-Y-2-NORTH,    !- Name
    180,                      !- Azimuth Angle
    90,                       !- Tilt Angle
    -32.8,                    !- Starting X Coordinate
    -5.3,                     !- Starting Y Coordinate
    0,                        !- Starting Z Coordinate
    6.4,                      !- Length
    8.100000000000001;        !- Height

SHADING:BUILDING,
    NEIGHBOUR-L2-X-2-Y-2-EAST,    !- Name
    90,                       !- Azimuth Angle
    90,                       !- Tilt Angle
    -26.4,                    !- Starting X Coordinate
    -10.6,                    !- Starting Y Coordinate
    0,                        !- Starting Z Coordinate
    5.3,                      !- Length
    8.100000000000001;        !- Height

SHADING:BUILDING,
    NEIGHBOUR-L2-X-2-Y-1-NORTH,    !- Name
    180,                      !- Azimuth Angle
    90,                       !- Tilt Angle
    -32.8,                    !- Starting X Coordinate
    0,                        !- Starting Y Coordinate
    0,                        !- Starting Z Coordinate
    6.4,                      !- Length
    8.100000000000001;        !- Height

SHADING:BUILDING,
    NEIGHBOUR-L2-X-2-Y-1-EAST,    !- Name
    90,                       !- Azimuth Angle
    90,                       !- Tilt Angle
    -26.4,                    !- Starting X Coordinate
    -5.3,                     !- Starting Y Coordinate
    0,                        !- Starting Z Coordinate
    5.3,                      !- Length
    8.100000000000001;        !- Height

SHADING:BUILDING,
    NEIGHBOUR-L2-X-2-Y1-SOUTH,    !- Name
    180,                      !- Azimuth Angle
    90,                       !- Tilt Angle
    -32.8,                    !- Starting X Coordinate
    5.3,                      !- Starting Y Coordinate
    0,                        !- Starting Z Coordinate
    6.4,                      !- Length
    8.100000000000001;        !- Height

SHADING:BUILDING,
    NEIGHBOUR-L2-X-2-Y1-EAST,    !- Name
    90,                       !- Azimuth Angle
    90,                       !- Tilt Angle
    -26.4,                    !- Starting X Coordinate
    5.3,                      !- Starting Y Coordinate
    0,                        !- Starting Z Coordinate
    5.3,                      !- Length
    8.100000000000001;        !- Height

SHADING:BUILDING,
    NEIGHBOUR-L2-X-2-Y2-SOUTH,    !- Name
    180,                      !- Azimuth Angle
    90,                       !- Tilt Angle
    -32.8,                    !- Starting X Coordinate
    10.6,                     !- Starting Y Coordinate
    0,                        !- Starting Z Coordinate
    6.4,                      !- Length
    8.100000000000001;        !- Height

SHADING:BUILDING,
    NEIGHBOUR-L2-X-2-Y2-EAST,    !- Name
    90,                       !- Azimuth Angle
    90,                       !- Tilt Angle
    -26.4,                    !- Starting X Coordinate
    10.6,                     !- Starting Y Coordinate
    0,                        !- Starting Z Coordinate
    5.3,                      !- Length
    8.100000000000001;        !- Height

SHADING:BUILDING,
    NEIGHBOUR-L2-X-1-Y-2-NORTH,    !- Name
    180,                      !- Azimuth Angle
    90,                       !- Tilt Angle
    -16.4,                    !- Starting X Coordinate
    -5.3,                     !- Starting Y Coordinate
    0,                        !- Starting Z Coordinate
    6.4,                      !- Length
    8.100000000000001;        !- Height

SHADING:BUILDING,
    NEIGHBOUR-L2-X-1-Y-2-EAST,    !- Name
    90,                       !- Azimuth Angle
    90,                       !- Tilt Angle
    -9.999999999999998,       !- Starting X Coordinate
    -10.6,                    !- Starting Y Coordinate
    0,                        !- Starting Z Coordinate
    5.3,                      !- Length
    8.100000000000001;        !- Height

SHADING:BUILDING,
    NEIGHBOUR-L2-X-1-Y-1-NORTH,    !- Name
    180,                      !- Azimuth Angle
    90,                       !- Tilt Angle
    -16.4,                    !- Starting X Coordinate
    0,                        !- Starting Y Coordinate
    0,                        !- Starting Z Coordinate
    6.4,                      !- Length
    8.100000000000001;        !- Height

SHADING:BUILDING,
    NEIGHBOUR-L2-X-1-Y-1-EAST,    !- Name
    90,                       !- Azimuth Angle
    90,                       !- Tilt Angle
    -9.999999999999998,       !- Starting X Coordinate
    -5.3,                     !- Starting Y Coordinate
    0,                        !- Starting Z Coordinate
    5.3,                      !- Length
    8.100000000000001;        !- Height

SHADING:BUILDING,
    NEIGHBOUR-L2-X-1-Y0-EAST,    !- Name
    90,                       !- Azimuth Angle
    90,                       !- Tilt Angle
    -9.999999999999998,       !- Starting X Coordinate
    0,                        !- Starting Y Coordinate
    0,                        !- Starting Z Coordinate
    5.3,                      !- Length
    8.100000000000001;        !- Height

SHADING:BUILDING,
    NEIGHBOUR-L2-X-1-Y1-SOUTH,    !- Name
    180,                      !- Azimuth Angle
    90,                       !- Tilt Angle
    -16.4,                    !- Starting X Coordinate
    5.3,                      !- Starting Y Coordinate
    0,                        !- Starting Z Coordinate
    6.4,                      !- Length
    8.100000000000001;        !- Height

SHADING:BUILDING,
    NEIGHBOUR-L2-X-1-Y1-EAST,    !- Name
    90,                       !- Azimuth Angle
    90,                       !- Tilt Angle
    -9.999999999999998,       !- Starting X Coordinate
    5.3,                      !- Starting Y Coordinate
    0,                        !- Starting Z Coordinate
    5.3,                      !- Length
    8.100000000000001;        !- Height

SHADING:BUILDING,
    NEIGHBOUR-L2-X-1-Y2-SOUTH,    !- Name
    180,                      !- Azimuth Angle
    90,                       !- Tilt Angle
    -16.4,                    !- Starting X Coordinate
    10.6,                     !- Starting Y Coordinate
    0,                        !- Starting Z Coordinate
    6.4,                      !- Length
    8.100000000000001;        !- Height

SHADING:BUILDING,
    NEIGHBOUR-L2-X-1-Y2-EAST,    !- Name
    90,                       !- Azimuth Angle
    90,                       !- Tilt Angle
    -9.999999999999998,       !- Starting X Coordinate
    10.6,                     !- Starting Y Coordinate
    0,                        !- Starting Z Coordinate
    5.3,                      !- Length
    8.100000000000001;        !- Height

SHADING:BUILDING,
    NEIGHBOUR-L2-X1-Y-2-NORTH,    !- Name
    180,                      !- Azimuth Angle
    90,                       !- Tilt Angle
    16.4,                     !- Starting X Coordinate
    -5.3,                     !- Starting Y Coordinate
    0,                        !- Starting Z Coordinate
    6.4,                      !- Length
    8.100000000000001;        !- Height

SHADING:BUILDING,
    NEIGHBOUR-L2-X1-Y-2-WEST,    !- Name
    90,                       !- Azimuth Angle
    90,                       !- Tilt Angle
    16.4,                     !- Starting X Coordinate
    -10.6,                    !- Starting Y Coordinate
    0,                        !- Starting Z Coordinate
    5.3,                      !- Length
    8.100000000000001;        !- Height

SHADING:BUILDING,
    NEIGHBOUR-L2-X1-Y-1-NORTH,    !- Name
    180,                      !- Azimuth Angle
    90,                       !- Tilt Angle
    16.4,                     !- Starting X Coordinate
    0,                        !- Starting Y Coordinate
    0,                        !- Starting Z Coordinate
    6.4,                      !- Length
    8.100000000000001;        !- Height

SHADING:BUILDING,
    NEIGHBOUR-L2-X1-Y-1-WEST,    !- Name
    90,                       !- Azimuth Angle
    90,                       !- Tilt Angle
    16.4,                     !- Starting X Coordinate
    -5.3,                     !- Starting Y Coordinate
    0,                        !- Starting Z Coordinate
    5.3,                      !- Length
    8.100000000000001;        !- Height

SHADING:BUILDING,
    NEIGHBOUR-L2-X1-Y0-WEST,    !- Name
    90,                       !- Azimuth Angle
    90,                       !- Tilt Angle
    16.4,                     !- Starting X Coordinate
    0,                        !- Starting Y Coordinate
    0,                        !- Starting Z Coordinate
    5.3,                      !- Length
    8.100000000000001;        !- Height

SHADING:BUILDING,
    NEIGHBOUR-L2-X1-Y1-SOUTH,    !- Name
    180,                      !- Azimuth Angle
    90,                       !- Tilt Angle
    16.4,                     !- Starting X Coordinate
    5.3,                      !- Starting Y Coordinate
    0,                        !- Starting Z Coordinate
    6.4,                      !- Length
    8.100000000000001;        !- Height

SHADING:BUILDING,
    NEIGHBOUR-L2-X1-Y1-WEST,    !- Name
    90,                       !- Azimuth Angle
    90,                       !- Tilt Angle
    16.4,                     !- Starting X Coordinate
    5.3,                      !- Starting Y Coordinate
    0,                        !- Starting Z Coordinate
    5.3,                      !- Length
    8.100000000000001;        !- Height

SHADING:BUILDING,
    NEIGHBOUR-L2-X1-Y2-SOUTH,    !- Name
    180,                      !- Azimuth Angle
    90,                       !- Tilt Angle
    16.4,                     !- Starting X Coordinate
    10.6,                     !- Starting Y Coordinate
    0,                        !- Starting Z Coordinate
    6.4,                      !- Length
    8.100000000000001;        !- Height

SHADING:BUILDING,
    NEIGHBOUR-L2-X1-Y2-WEST,    !- Name
    90,                       !- Azimuth Angle
    90,                       !- Tilt Angle
    16.4,                     !- Starting X Coordinate
    10.6,                     !- Starting Y Coordinate
    0,                        !- Starting Z Coordinate
    5.3,                      !- Length
    8.100000000000001;        !- Height

SHADING:BUILDING,
    NEIGHBOUR-L2-X2-Y-2-NORTH,    !- Name
    180,                      !- Azimuth Angle
    90,                       !- Tilt Angle
    32.8,                     !- Starting X Coordinate
    -5.3,                     !- Starting Y Coordinate
    0,                        !- Starting Z Coordinate
    6.4,                      !- Length
    8.100000000000001;        !- Height

SHADING:BUILDING,
    NEIGHBOUR-L2-X2-Y-2-WEST,    !- Name
    90,                       !- Azimuth Angle
    90,                       !- Tilt Angle
    32.8,                     !- Starting X Coordinate
    -10.6,                    !- Starting Y Coordinate
    0,                        !- Starting Z Coordinate
    5.3,                      !- Length
    8.100000000000001;        !- Height

SHADING:BUILDING,
    NEIGHBOUR-L2-X2-Y-1-NORTH,    !- Name
    180,                      !- Azimuth Angle
    90,                       !- Tilt Angle
    32.8,                     !- Starting X Coordinate
    0,                        !- Starting Y Coordinate
    0,                        !- Starting Z Coordinate
    6.4,                      !- Length
    8.100000000000001;        !- Height

SHADING:BUILDING,
    NEIGHBOUR-L2-X2-Y-1-WEST,    !- Name
    90,                       !- Azimuth Angle
    90,                       !- Tilt Angle
    32.8,                     !- Starting X Coordinate
    -5.3,                     !- Starting Y Coordinate
    0,                        !- Starting Z Coordinate
    5.3,                      !- Length
    8.100000000000001;        !- Height

SHADING:BUILDING,
    NEIGHBOUR-L2-X2-Y1-SOUTH,    !- Name
    180,                      !- Azimuth Angle
    90,                       !- Tilt Angle
    32.8,                     !- Starting X Coordinate
    5.3,                      !- Starting Y Coordinate
    0,                        !- Starting Z Coordinate
    6.4,                      !- Length
    8.100000000000001;        !- Height

SHADING:BUILDING,
    NEIGHBOUR-L2-X2-Y1-WEST,    !- Name
    90,                       !- Azimuth Angle
    90,                       !- Tilt Angle
    32.8,                     !- Starting X Coordinate
    5.3,                      !- Starting Y Coordinate
    0,                        !- Starting Z Coordinate
    5.3,                      !- Length
    8.100000000000001;        !- Height

SHADING:BUILDING,
    NEIGHBOUR-L2-X2-Y2-SOUTH,    !- Name
    180,                      !- Azimuth Angle
    90,                       !- Tilt Angle
    32.8,                     !- Starting X Coordinate
    10.6,                     !- Starting Y Coordinate
    0,                        !- Starting Z Coordinate
    6.4,                      !- Length
    8.100000000000001;        !- Height

SHADING:BUILDING,
    NEIGHBOUR-L2-X2-Y2-WEST,    !- Name
    90,                       !- Azimuth Angle
    90,                       !- Tilt Angle
    32.8,                     !- Starting X Coordinate
    10.6,                     !- Starting Y Coordinate
    0,                        !- Starting Z Coordinate
    5.3,                      !- Length
    8.100000000000001;        !- Height

PEOPLE,
    Living-People,            !- Name
    Living,                   !- Zone or ZoneList Name
    Occupancy-Schedule-Living,    !- Number of People Schedule Name
    People,                   !- Number of People Calculation Method
    4,                        !- Number of People
    4,                        !- People per Zone Floor Area
    4,                        !- Zone Floor Area per Person
    0.3,                      !- Fraction Radiant
    autocalculate,            !- Sensible Heat Fraction
    Activity-Schedule-Living,    !- Activity Level Schedule Name
    3.82e-08,                 !- Carbon Dioxide Generation Rate
    No,                       !- Enable ASHRAE 55 Comfort Warnings
    ZoneAveraged,             !- Mean Radiant Temperature Calculation Type
    ,                         !- Surface NameAngle Factor List Name
    ,                         !- Work Efficiency Schedule Name
    ClothingInsulationSchedule;    !- Clothing Insulation Calculation Method

PEOPLE,
    Bedroom-People,           !- Name
    Bedroom,                  !- Zone or ZoneList Name
    Occupancy-Schedule-Bedroom,    !- Number of People Schedule Name
    People,                   !- Number of People Calculation Method
    4,                        !- Number of People
    4,                        !- People per Zone Floor Area
    4,                        !- Zone Floor Area per Person
    0.3,                      !- Fraction Radiant
    autocalculate,            !- Sensible Heat Fraction
    Activity-Schedule-Bedroom,    !- Activity Level Schedule Name
    3.82e-08,                 !- Carbon Dioxide Generation Rate
    No,                       !- Enable ASHRAE 55 Comfort Warnings
    ZoneAveraged,             !- Mean Radiant Temperature Calculation Type
    ,                         !- Surface NameAngle Factor List Name
    ,                         !- Work Efficiency Schedule Name
    ClothingInsulationSchedule;    !- Clothing Insulation Calculation Method

LIGHTS,
    Living-Lights,            !- Name
    Living,                   !- Zone or ZoneList Name
    Lighting-Schedule,        !- Schedule Name
    Watts/area,               !- Design Level Calculation Method
    0,                        !- Lighting Level
    0,                        !- Watts per Zone Floor Area
    0,                        !- Watts per Person
    0,                        !- Return Air Fraction
    0,                        !- Fraction Radiant
    0,                        !- Fraction Visible
    1,                        !- Fraction Replaceable
    General,                  !- EndUse Subcategory
    No,                       !- Return Air Fraction Calculated from Plenum Temperature
    0,                        !- Return Air Fraction Function of Plenum Temperature Coefficient 1
    0;                        !- Return Air Fraction Function of Plenum Temperature Coefficient 2

LIGHTS,
    Bedroom-Lights,           !- Name
    Bedroom,                  !- Zone or ZoneList Name
    Lighting-Schedule,        !- Schedule Name
    Watts/area,               !- Design Level Calculation Method
    0,                        !- Lighting Level
    0,                        !- Watts per Zone Floor Area
    0,                        !- Watts per Person
    0,                        !- Return Air Fraction
    0,                        !- Fraction Radiant
    0,                        !- Fraction Visible
    1,                        !- Fraction Replaceable
    General,                  !- EndUse Subcategory
    No,                       !- Return Air Fraction Calculated from Plenum Temperature
    0,                        !- Return Air Fraction Function of Plenum Temperature Coefficient 1
    0;                        !- Return Air Fraction Function of Plenum Temperature Coefficient 2

ELECTRICEQUIPMENT,
    Living-Equipment,         !- Name
    Living,                   !- Zone or ZoneList Name
    Equipment-Schedule,       !- Schedule Name
    EquipmentLevel,           !- Design Level Calculation Method
    0,                        !- Design Level
    0,                        !- Watts per Zone Floor Area
    0,                        !- Watts per Person
    0,                        !- Fraction Latent
    0,                        !- Fraction Radiant
    0,                        !- Fraction Lost
    General;                  !- EndUse Subcategory

ELECTRICEQUIPMENT,
    Bedroom-Equipment,        !- Name
    Bedroom,                  !- Zone or ZoneList Name
    Equipment-Schedule,       !- Schedule Name
    EquipmentLevel,           !- Design Level Calculation Method
    0,                        !- Design Level
    0,                        !- Watts per Zone Floor Area
    0,                        !- Watts per Person
    0,                        !- Fraction Latent
    0,                        !- Fraction Radiant
    0,                        !- Fraction Lost
    General;                  !- EndUse Subcategory

ZONEINFILTRATION:DESIGNFLOWRATE,
    Living-Infiltration,      !- Name
    Living,                   !- Zone or ZoneList Name
    Always-Schedule,          !- Schedule Name
    Airchanges/hour,          !- Design Flow Rate Calculation Method
    0.36,                     !- Design Flow Rate
    0.36,                     !- Flow per Zone Floor Area
    0.36,                     !- Flow per Exterior Surface Area
    0.36,                     !- Air Changes per Hour
    0.606,                    !- Constant Term Coefficient
    0.03636,                  !- Temperature Term Coefficient
    0.1177,                   !- Velocity Term Coefficient
    0;                        !- Velocity Squared Term Coefficient

ZONEINFILTRATION:DESIGNFLOWRATE,
    Bedroom-Infiltration,     !- Name
    Bedroom,                  !- Zone or ZoneList Name
    Always-Schedule,          !- Schedule Name
    Airchanges/hour,          !- Design Flow Rate Calculation Method
    0.36,                     !- Design Flow Rate
    0.36,                     !- Flow per Zone Floor Area
    0.36,                     !- Flow per Exterior Surface Area
    0.36,                     !- Air Changes per Hour
    0.606,                    !- Constant Term Coefficient
    0.03636,                  !- Temperature Term Coefficient
    0.1177,                   !- Velocity Term Coefficient
    0;                        !- Velocity Squared Term Coefficient

ZONEINFILTRATION:DESIGNFLOWRATE,
    Loft-Infiltration,        !- Name
    Loft,                     !- Zone or ZoneList Name
    Always-Schedule,          !- Schedule Name
    Airchanges/hour,          !- Design Flow Rate Calculation Method
    0.36,                     !- Design Flow Rate
    0.36,                     !- Flow per Zone Floor Area
    0.36,                     !- Flow per Exterior Surface Area
    0.36,                     !- Air Changes per Hour
    0.606,                    !- Constant Term Coefficient
    0.03636,                  !- Temperature Term Coefficient
    0.1177,                   !- Velocity Term Coefficient
    0;                        !- Velocity Squared Term Coefficient

ZONEVENTILATION:DESIGNFLOWRATE,
    Living-Ventilation,       !- Name
    Living,                   !- Zone or ZoneList Name
    Always-Schedule,          !- Schedule Name
    AirChanges/Hour,          !- Design Flow Rate Calculation Method
    ,                         !- Design Flow Rate
    ,                         !- Flow Rate per Zone Floor Area
    ,                         !- Flow Rate per Person
    2,                        !- Air Changes per Hour
    Natural,                  !- Ventilation Type
    0,                        !- Fan Pressure Rise
    1,                        !- Fan Total Efficiency
    1,                        !- Constant Term Coefficient
    0,                        !- Temperature Term Coefficient
    0,                        !- Velocity Term Coefficient
    0,                        !- Velocity Squared Term Coefficient
    -100,                     !- Minimum Indoor Temperature
    ,                         !- Minimum Indoor Temperature Schedule Name
    100,                      !- Maximum Indoor Temperature
    ,                         !- Maximum Indoor Temperature Schedule Name
    -100,                     !- Delta Temperature
    ,                         !- Delta Temperature Schedule Name
    -100,                     !- Minimum Outdoor Temperature
    ,                         !- Minimum Outdoor Temperature Schedule Name
    100,                      !- Maximum Outdoor Temperature
    ,                         !- Maximum Outdoor Temperature Schedule Name
    40;                       !- Maximum Wind Speed

ZONEVENTILATION:DESIGNFLOWRATE,
    Bedroom-Ventilation,      !- Name
    Bedroom,                  !- Zone or ZoneList Name
    Always-Schedule,          !- Schedule Name
    AirChanges/Hour,          !- Design Flow Rate Calculation Method
    ,                         !- Design Flow Rate
    ,                         !- Flow Rate per Zone Floor Area
    ,                         !- Flow Rate per Person
    2,                        !- Air Changes per Hour
    Natural,                  !- Ventilation Type
    0,                        !- Fan Pressure Rise
    1,                        !- Fan Total Efficiency
    1,                        !- Constant Term Coefficient
    0,                        !- Temperature Term Coefficient
    0,                        !- Velocity Term Coefficient
    0,                        !- Velocity Squared Term Coefficient
    -100,                     !- Minimum Indoor Temperature
    ,                         !- Minimum Indoor Temperature Schedule Name
    100,                      !- Maximum Indoor Temperature
    ,                         !- Maximum Indoor Temperature Schedule Name
    -100,                     !- Delta Temperature
    ,                         !- Delta Temperature Schedule Name
    -100,                     !- Minimum Outdoor Temperature
    ,                         !- Minimum Outdoor Temperature Schedule Name
    100,                      !- Maximum Outdoor Temperature
    ,                         !- Maximum Outdoor Temperature Schedule Name
    40;                       !- Maximum Wind Speed

DESIGNSPECIFICATION:OUTDOORAIR,
    DesignSpec OutdoorAir,    !- Name
    Flow/Person,              !- Outdoor Air Method
    0.00944,                  !- Outdoor Air Flow per Person
    0.0,                      !- Outdoor Air Flow per Zone Floor Area
    0,                        !- Outdoor Air Flow per Zone
    0;                        !- Outdoor Air Flow Air Changes per Hour

SIZING:ZONE,
    Living,                   !- Zone or ZoneList Name
    SupplyAirTemperature,     !- Zone Cooling Design Supply Air Temperature Input Method
    12.5,                     !- Zone Cooling Design Supply Air Temperature
    ,                         !- Zone Cooling Design Supply Air Temperature Difference
    SupplyAirTemperature,     !- Zone Heating Design Supply Air Temperature Input Method
    50,                       !- Zone Heating Design Supply Air Temperature
    ,                         !- Zone Heating Design Supply Air Temperature Difference
    0.008,                    !- Zone Cooling Design Supply Air Humidity Ratio
    0.008,                    !- Zone Heating Design Supply Air Humidity Ratio
    DesignSpec OutdoorAir,    !- Design Specification Outdoor Air Object Name
    1.25,                     !- Zone Heating Sizing Factor
    1.2,                      !- Zone Cooling Sizing Factor
    DesignDay,                !- Cooling Design Air Flow Method
    0,                        !- Cooling Design Air Flow Rate
    ,                         !- Cooling Minimum Air Flow per Zone Floor Area
    ,                         !- Cooling Minimum Air Flow
    0,                        !- Cooling Minimum Air Flow Fraction
    DesignDay,                !- Heating Design Air Flow Method
    0,                        !- Heating Design Air Flow Rate
    ,                         !- Heating Maximum Air Flow per Zone Floor Area
    ,                         !- Heating Maximum Air Flow
    0,                        !- Heating Maximum Air Flow Fraction
    ,                         !- Design Specification Zone Air Distribution Object Name
    No,                       !- Account for Dedicated Outdoor Air System
    NeutralSupplyAir,         !- Dedicated Outdoor Air System Control Strategy
    autosize,                 !- Dedicated Outdoor Air Low Setpoint Temperature for Design
    autosize;                 !- Dedicated Outdoor Air High Setpoint Temperature for Design

SIZING:ZONE,
    Bedroom,                  !- Zone or ZoneList Name
    SupplyAirTemperature,     !- Zone Cooling Design Supply Air Temperature Input Method
    12.5,                     !- Zone Cooling Design Supply Air Temperature
    ,                         !- Zone Cooling Design Supply Air Temperature Difference
    SupplyAirTemperature,     !- Zone Heating Design Supply Air Temperature Input Method
    50,                       !- Zone Heating Design Supply Air Temperature
    ,                         !- Zone Heating Design Supply Air Temperature Difference
    0.008,                    !- Zone Cooling Design Supply Air Humidity Ratio
    0.008,                    !- Zone Heating Design Supply Air Humidity Ratio
    DesignSpec OutdoorAir,    !- Design Specification Outdoor Air Object Name
    1.25,                     !- Zone Heating Sizing Factor
    1.2,                      !- Zone Cooling Sizing Factor
    DesignDay,                !- Cooling Design Air Flow Method
    0,                        !- Cooling Design Air Flow Rate
    ,                         !- Cooling Minimum Air Flow per Zone Floor Area
    ,                         !- Cooling Minimum Air Flow
    0,                        !- Cooling Minimum Air Flow Fraction
    DesignDay,                !- Heating Design Air Flow Method
    0,                        !- Heating Design Air Flow Rate
    ,                         !- Heating Maximum Air Flow per Zone Floor Area
    ,                         !- Heating Maximum Air Flow
    0,                        !- Heating Maximum Air Flow Fraction
    ,                         !- Design Specification Zone Air Distribution Object Name
    No,                       !- Account for Dedicated Outdoor Air System
    NeutralSupplyAir,         !- Dedicated Outdoor Air System Control Strategy
    autosize,                 !- Dedicated Outdoor Air Low Setpoint Temperature for Design
    autosize;                 !- Dedicated Outdoor Air High Setpoint Temperature for Design

SIZING:PLANT,
    Main Hot Water Loop,      !- Plant or Condenser Loop Name
    Heating,                  !- Loop Type
    80,                       !- Design Loop Exit Temperature
    11,                       !- Loop Design Temperature Difference
    NonCoincident,            !- Sizing Option
    1;                        !- Zone Timesteps in Averaging Window

SIZING:PLANT,
    DHW Main Hot Water Loop,    !- Plant or Condenser Loop Name
    Heating,                  !- Loop Type
    45,                       !- Design Loop Exit Temperature
    11,                       !- Loop Design Temperature Difference
    NonCoincident,            !- Sizing Option
    1;                        !- Zone Timesteps in Averaging Window

ZONECONTROL:THERMOSTAT,
    Living-Thermostat,        !- Name
    Living,                   !- Zone or ZoneList Name
    Always 4,                 !- Control Type Schedule Name
    ThermostatSetpoint:DualSetpoint,    !- Control 1 Object Type
    Living-Thermostat Dual SP Control,    !- Control 1 Name
    ,                         !- Control 2 Object Type
    ,                         !- Control 2 Name
    ,                         !- Control 3 Object Type
    ,                         !- Control 3 Name
    ,                         !- Control 4 Object Type
    ,                         !- Control 4 Name
    0;                        !- Temperature Difference Between Cutout And Setpoint

ZONECONTROL:THERMOSTAT,
    Bedroom-Thermostat,       !- Name
    Bedroom,                  !- Zone or ZoneList Name
    Always 4,                 !- Control Type Schedule Name
    ThermostatSetpoint:DualSetpoint,    !- Control 1 Object Type
    Bedroom-Thermostat Dual SP Control,    !- Control 1 Name
    ,                         !- Control 2 Object Type
    ,                         !- Control 2 Name
    ,                         !- Control 3 Object Type
    ,                         !- Control 3 Name
    ,                         !- Control 4 Object Type
    ,                         !- Control 4 Name
    0;                        !- Temperature Difference Between Cutout And Setpoint

ZONECONTROL:THERMOSTAT:OPERATIVETEMPERATURE,
    Living-Thermostat,        !- Thermostat Name
    Constant,                 !- Radiative Fraction Input Mode
    0.5,                      !- Fixed Radiative Fraction
    ,                         !- Radiative Fraction Schedule Name
    None;                     !- Adaptive Comfort Model Type

ZONECONTROL:THERMOSTAT:OPERATIVETEMPERATURE,
    Bedroom-Thermostat,       !- Thermostat Name
    Constant,                 !- Radiative Fraction Input Mode
    0.5,                      !- Fixed Radiative Fraction
    ,                         !- Radiative Fraction Schedule Name
    None;                     !- Adaptive Comfort Model Type

THERMOSTATSETPOINT:DUALSETPOINT,
    Living-Thermostat Dual SP Control,    !- Name
    Living-Heating-Setpoints,    !- Heating Setpoint Temperature Schedule Name
    Living-Cooling-Setpoints;    !- Cooling Setpoint Temperature Schedule Name

THERMOSTATSETPOINT:DUALSETPOINT,
    Bedroom-Thermostat Dual SP Control,    !- Name
    Bedroom-Heating-Setpoints,    !- Heating Setpoint Temperature Schedule Name
    Bedroom-Cooling-Setpoints;    !- Cooling Setpoint Temperature Schedule Name

ZONEHVAC:BASEBOARD:RADIANTCONVECTIVE:WATER:DESIGN,
    Baseboard Heat Design,    !- Name
    FractionOfAutosizedHeatingCapacity,    !- Heating Design Capacity Method
    ,                         !- Heating Design Capacity Per Floor Area
    1.2,                      !- Fraction of Autosized Heating Design Capacity
    0.001,                    !- Convergence Tolerance
    0.3,                      !- Fraction Radiant
    0;                        !- Fraction of Radiant Energy Incident on People

ZONEHVAC:BASEBOARD:RADIANTCONVECTIVE:WATER,
    Living-Baseboard Heat,    !- Name
    Baseboard Heat Design,    !- Design Object
    ,                         !- Availability Schedule Name
    Living-Baseboard Inlet,    !- Inlet Node Name
    Living-Baseboard Outlet,    !- Outlet Node Name
    80,                       !- Rated Average Water Temperature
    0.063,                    !- Rated Water Mass Flow Rate
    autosize,                 !- Heating Design Capacity
    autosize,                 !- Maximum Water Flow Rate
    IntMass-Furniture-Living,    !- Surface 1 Name
    1;                        !- Fraction of Radiant Energy to Surface 1

ZONEHVAC:BASEBOARD:RADIANTCONVECTIVE:WATER,
    Bedroom-Baseboard Heat,    !- Name
    Baseboard Heat Design,    !- Design Object
    ,                         !- Availability Schedule Name
    Bedroom-Baseboard Inlet,    !- Inlet Node Name
    Bedroom-Baseboard Outlet,    !- Outlet Node Name
    80,                       !- Rated Average Water Temperature
    0.063,                    !- Rated Water Mass Flow Rate
    autosize,                 !- Heating Design Capacity
    autosize,                 !- Maximum Water Flow Rate
    IntMass-Furniture-Bedroom,    !- Surface 1 Name
    1;                        !- Fraction of Radiant Energy to Surface 1

ZONEHVAC:EQUIPMENTLIST,
    Living-Equipment,         !- Name
    SequentialLoad,           !- Load Distribution Scheme
    ZoneHVAC:Baseboard:RadiantConvective:Water,    !- Zone Equipment 1 Object Type
    Living-Baseboard Heat,    !- Zone Equipment 1 Name
    1,                        !- Zone Equipment 1 Cooling Sequence
    1;                        !- Zone Equipment 1 Heating or NoLoad Sequence

ZONEHVAC:EQUIPMENTLIST,
    Bedroom-Equipment,        !- Name
    SequentialLoad,           !- Load Distribution Scheme
    ZoneHVAC:Baseboard:RadiantConvective:Water,    !- Zone Equipment 1 Object Type
    Bedroom-Baseboard Heat,    !- Zone Equipment 1 Name
    1,                        !- Zone Equipment 1 Cooling Sequence
    1;                        !- Zone Equipment 1 Heating or NoLoad Sequence

ZONEHVAC:EQUIPMENTCONNECTIONS,
    Living,                   !- Zone Name
    Living-Equipment,         !- Zone Conditioning Equipment List Name
    ,                         !- Zone Air Inlet Node or NodeList Name
    ,                         !- Zone Air Exhaust Node or NodeList Name
    Living-Zone Air Node,     !- Zone Air Node Name
    Living-Return Outlet;     !- Zone Return Air Node or NodeList Name

ZONEHVAC:EQUIPMENTCONNECTIONS,
    Bedroom,                  !- Zone Name
    Bedroom-Equipment,        !- Zone Conditioning Equipment List Name
    ,                         !- Zone Air Inlet Node or NodeList Name
    ,                         !- Zone Air Exhaust Node or NodeList Name
    Bedroom-Zone Air Node,    !- Zone Air Node Name
    Bedroom-Return Outlet;    !- Zone Return Air Node or NodeList Name

BRANCH,
    Main Boiler Branch,       !- Name
    ,                         !- Pressure Drop Curve Name
    Boiler:HotWater,          !- Component 1 Object Type
    Main Boiler,              !- Component 1 Name
    Main Boiler Inlet,        !- Component 1 Inlet Node Name
    Main Boiler Outlet;       !- Component 1 Outlet Node Name

BRANCH,
    Main Hot Water Loop Supply Bypass Branch,    !- Name
    ,                         !- Pressure Drop Curve Name
    Pipe:Adiabatic,           !- Component 1 Object Type
    Main Hot Water Loop Supply Side Bypass Pipe,    !- Component 1 Name
    Main Hot Water Loop Supply Bypass Inlet,    !- Component 1 Inlet Node Name
    Main Hot Water Loop Supply Bypass Outlet;    !- Component 1 Outlet Node Name

BRANCH,
    Main Hot Water Loop Supply Inlet Branch,    !- Name
    ,                         !- Pressure Drop Curve Name
    Pump:ConstantSpeed,       !- Component 1 Object Type
    Main Hot Water Loop Supply Pump,    !- Component 1 Name
    Main Hot Water Loop Supply Inlet,    !- Component 1 Inlet Node Name
    Main Hot Water Loop Pump Outlet;    !- Component 1 Outlet Node Name

BRANCH,
    Main Hot Water Loop Supply Outlet Branch,    !- Name
    ,                         !- Pressure Drop Curve Name
    Pipe:Adiabatic,           !- Component 1 Object Type
    Main Hot Water Loop Supply Outlet Pipe,    !- Component 1 Name
    Main Hot Water Loop Supply Outlet Pipe Inlet,    !- Component 1 Inlet Node Name
    Main Hot Water Loop Supply Outlet;    !- Component 1 Outlet Node Name

BRANCH,
    DHW Main Boiler Branch,    !- Name
    ,                         !- Pressure Drop Curve Name
    Boiler:HotWater,          !- Component 1 Object Type
    DHW Main Boiler,          !- Component 1 Name
    DHW Main Boiler Inlet,    !- Component 1 Inlet Node Name
    DHW Main Boiler Outlet;    !- Component 1 Outlet Node Name

BRANCH,
    DHW Main Hot Water Loop Supply Bypass Branch,    !- Name
    ,                         !- Pressure Drop Curve Name
    Pipe:Adiabatic,           !- Component 1 Object Type
    DHW Main Hot Water Loop Supply Side Bypass Pipe,    !- Component 1 Name
    DHW Main Hot Water Loop Supply Bypass Inlet,    !- Component 1 Inlet Node Name
    DHW Main Hot Water Loop Supply Bypass Outlet;    !- Component 1 Outlet Node Name

BRANCH,
    DHW Main Hot Water Loop Supply Inlet Branch,    !- Name
    ,                         !- Pressure Drop Curve Name
    Pump:ConstantSpeed,       !- Component 1 Object Type
    DHW Main Hot Water Loop Supply Pump,    !- Component 1 Name
    DHW Main Hot Water Loop Supply Inlet,    !- Component 1 Inlet Node Name
    DHW Main Hot Water Loop Pump Outlet;    !- Component 1 Outlet Node Name

BRANCH,
    DHW Main Hot Water Loop Supply Outlet Branch,    !- Name
    ,                         !- Pressure Drop Curve Name
    Pipe:Adiabatic,           !- Component 1 Object Type
    DHW Main Hot Water Loop Supply Outlet Pipe,    !- Component 1 Name
    DHW Main Hot Water Loop Supply Outlet Pipe Inlet,    !- Component 1 Inlet Node Name
    DHW Main Hot Water Loop Supply Outlet;    !- Component 1 Outlet Node Name

BRANCH,
    Main Hot Water Loop Demand Inlet Branch,    !- Name
    ,                         !- Pressure Drop Curve Name
    Pipe:Adiabatic,           !- Component 1 Object Type
    Main Hot Water Loop Demand Inlet Pipe,    !- Component 1 Name
    Main Hot Water Loop Demand Inlet,    !- Component 1 Inlet Node Name
    Main Hot Water Loop Demand Inlet Pipe Outlet;    !- Component 1 Outlet Node Name

BRANCH,
    Main Hot Water Loop Demand Bypass Branch,    !- Name
    ,                         !- Pressure Drop Curve Name
    Pipe:Adiabatic,           !- Component 1 Object Type
    Main Hot Water Loop Demand Side Bypass Pipe,    !- Component 1 Name
    Main Hot Water Loop Demand Bypass Inlet,    !- Component 1 Inlet Node Name
    Main Hot Water Loop Demand Bypass Outlet;    !- Component 1 Outlet Node Name

BRANCH,
    Main Hot Water Loop Demand Outlet Branch,    !- Name
    ,                         !- Pressure Drop Curve Name
    Pipe:Adiabatic,           !- Component 1 Object Type
    Main Hot Water Loop Demand Outlet Pipe,    !- Component 1 Name
    Main Hot Water Loop Demand Outlet Pipe Inlet,    !- Component 1 Inlet Node Name
    Main Hot Water Loop Demand Outlet;    !- Component 1 Outlet Node Name

BRANCH,
    Living-Heating Branch,    !- Name
    ,                         !- Pressure Drop Curve Name
    ZoneHVAC:Baseboard:RadiantConvective:Water,    !- Component 1 Object Type
    Living-Baseboard Heat,    !- Component 1 Name
    Living-Baseboard Inlet,    !- Component 1 Inlet Node Name
    Living-Baseboard Outlet;    !- Component 1 Outlet Node Name

BRANCH,
    Bedroom-Heating Branch,    !- Name
    ,                         !- Pressure Drop Curve Name
    ZoneHVAC:Baseboard:RadiantConvective:Water,    !- Component 1 Object Type
    Bedroom-Baseboard Heat,    !- Component 1 Name
    Bedroom-Baseboard Inlet,    !- Component 1 Inlet Node Name
    Bedroom-Baseboard Outlet;    !- Component 1 Outlet Node Name

BRANCH,
    DHW Main Hot Water Loop Demand Inlet Branch,    !- Name
    ,                         !- Pressure Drop Curve Name
    Pipe:Adiabatic,           !- Component 1 Object Type
    DHW Main Hot Water Loop Demand Inlet Pipe,    !- Component 1 Name
    DHW Main Hot Water Loop Demand Inlet,    !- Component 1 Inlet Node Name
    DHW Main Hot Water Loop Demand Inlet Pipe Outlet;    !- Component 1 Outlet Node Name

BRANCH,
    DHW Main Hot Water Loop Demand Bypass Branch,    !- Name
    ,                         !- Pressure Drop Curve Name
    Pipe:Adiabatic,           !- Component 1 Object Type
    DHW Main Hot Water Loop Demand Side Bypass Pipe,    !- Component 1 Name
    DHW Main Hot Water Loop Demand Bypass Inlet,    !- Component 1 Inlet Node Name
    DHW Main Hot Water Loop Demand Bypass Outlet;    !- Component 1 Outlet Node Name

BRANCH,
    DHW Main Hot Water Loop Demand Outlet Branch,    !- Name
    ,                         !- Pressure Drop Curve Name
    Pipe:Adiabatic,           !- Component 1 Object Type
    DHW Main Hot Water Loop Demand Outlet Pipe,    !- Component 1 Name
    DHW Main Hot Water Loop Demand Outlet Pipe Inlet,    !- Component 1 Inlet Node Name
    DHW Main Hot Water Loop Demand Outlet;    !- Component 1 Outlet Node Name

BRANCH,
    Living Hot Water Loop Demand DHW Use,    !- Name
    ,                         !- Pressure Drop Curve Name
    WATERHEATER:MIXED,        !- Component 1 Object Type
    Living DHW Water Heater Tank,    !- Component 1 Name
    Living Hot Water Loop Demand DHW Inlet,    !- Component 1 Inlet Node Name
    Living Hot Water Loop Demand DHW Outlet;    !- Component 1 Outlet Node Name

BRANCHLIST,
    Main Hot Water Loop Supply Side Branches,    !- Name
    Main Hot Water Loop Supply Inlet Branch,    !- Branch 1 Name
    Main Boiler Branch,       !- Branch 2 Name
    Main Hot Water Loop Supply Bypass Branch,    !- Branch 3 Name
    Main Hot Water Loop Supply Outlet Branch;    !- Branch 4 Name

BRANCHLIST,
    DHW Main Hot Water Loop Supply Side Branches,    !- Name
    DHW Main Hot Water Loop Supply Inlet Branch,    !- Branch 1 Name
    DHW Main Boiler Branch,    !- Branch 2 Name
    DHW Main Hot Water Loop Supply Bypass Branch,    !- Branch 3 Name
    DHW Main Hot Water Loop Supply Outlet Branch;    !- Branch 4 Name

BRANCHLIST,
    Main Hot Water Loop Demand Side Branches,    !- Name
    Main Hot Water Loop Demand Inlet Branch,    !- Branch 1 Name
    Main Hot Water Loop Demand Bypass Branch,    !- Branch 2 Name
    Living-Heating Branch,    !- Branch 3 Name
    Bedroom-Heating Branch,    !- Branch 4 Name
    Main Hot Water Loop Demand Outlet Branch;    !- Branch 5 Name

BRANCHLIST,
    DHW Main Hot Water Loop Demand Side Branches,    !- Name
    DHW Main Hot Water Loop Demand Inlet Branch,    !- Branch 1 Name
    DHW Main Hot Water Loop Demand Bypass Branch,    !- Branch 2 Name
    Living Hot Water Loop Demand DHW Use,    !- Branch 3 Name
    DHW Main Hot Water Loop Demand Outlet Branch;    !- Branch 4 Name

CONNECTOR:SPLITTER,
    Main Hot Water Loop Supply Splitter,    !- Name
    Main Hot Water Loop Supply Inlet Branch,    !- Inlet Branch Name
    Main Boiler Branch,       !- Outlet Branch 1 Name
    Main Hot Water Loop Supply Bypass Branch;    !- Outlet Branch 2 Name

CONNECTOR:SPLITTER,
    DHW Main Hot Water Loop Supply Splitter,    !- Name
    DHW Main Hot Water Loop Supply Inlet Branch,    !- Inlet Branch Name
    DHW Main Boiler Branch,    !- Outlet Branch 1 Name
    DHW Main Hot Water Loop Supply Bypass Branch;    !- Outlet Branch 2 Name

CONNECTOR:SPLITTER,
    Main Hot Water Loop Demand Splitter,    !- Name
    Main Hot Water Loop Demand Inlet Branch,    !- Inlet Branch Name
    Main Hot Water Loop Demand Bypass Branch,    !- Outlet Branch 1 Name
    Living-Heating Branch,    !- Outlet Branch 2 Name
    Bedroom-Heating Branch;    !- Outlet Branch 3 Name

CONNECTOR:SPLITTER,
    DHW Main Hot Water Loop Demand Splitter,    !- Name
    DHW Main Hot Water Loop Demand Inlet Branch,    !- Inlet Branch Name
    DHW Main Hot Water Loop Demand Bypass Branch,    !- Outlet Branch 1 Name
    Living Hot Water Loop Demand DHW Use;    !- Outlet Branch 2 Name

CONNECTOR:MIXER,
    Main Hot Water Loop Supply Mixer,    !- Name
    Main Hot Water Loop Supply Outlet Branch,    !- Outlet Branch Name
    Main Boiler Branch,       !- Inlet Branch 1 Name
    Main Hot Water Loop Supply Bypass Branch;    !- Inlet Branch 2 Name

CONNECTOR:MIXER,
    DHW Main Hot Water Loop Supply Mixer,    !- Name
    DHW Main Hot Water Loop Supply Outlet Branch,    !- Outlet Branch Name
    DHW Main Boiler Branch,    !- Inlet Branch 1 Name
    DHW Main Hot Water Loop Supply Bypass Branch;    !- Inlet Branch 2 Name

CONNECTOR:MIXER,
    Main Hot Water Loop Demand Mixer,    !- Name
    Main Hot Water Loop Demand Outlet Branch,    !- Outlet Branch Name
    Main Hot Water Loop Demand Bypass Branch,    !- Inlet Branch 1 Name
    Living-Heating Branch,    !- Inlet Branch 2 Name
    Bedroom-Heating Branch;    !- Inlet Branch 3 Name

CONNECTOR:MIXER,
    DHW Main Hot Water Loop Demand Mixer,    !- Name
    DHW Main Hot Water Loop Demand Outlet Branch,    !- Outlet Branch Name
    DHW Main Hot Water Loop Demand Bypass Branch,    !- Inlet Branch 1 Name
    Living Hot Water Loop Demand DHW Use;    !- Inlet Branch 2 Name

CONNECTORLIST,
    Main Hot Water Loop Supply Side Connectors,    !- Name
    Connector:Splitter,       !- Connector 1 Object Type
    Main Hot Water Loop Supply Splitter,    !- Connector 1 Name
    Connector:Mixer,          !- Connector 2 Object Type
    Main Hot Water Loop Supply Mixer;    !- Connector 2 Name

CONNECTORLIST,
    DHW Main Hot Water Loop Supply Side Connectors,    !- Name
    Connector:Splitter,       !- Connector 1 Object Type
    DHW Main Hot Water Loop Supply Splitter,    !- Connector 1 Name
    Connector:Mixer,          !- Connector 2 Object Type
    DHW Main Hot Water Loop Supply Mixer;    !- Connector 2 Name

CONNECTORLIST,
    Main Hot Water Loop Demand Side Connectors,    !- Name
    Connector:Splitter,       !- Connector 1 Object Type
    Main Hot Water Loop Demand Splitter,    !- Connector 1 Name
    Connector:Mixer,          !- Connector 2 Object Type
    Main Hot Water Loop Demand Mixer;    !- Connector 2 Name

CONNECTORLIST,
    DHW Main Hot Water Loop Demand Side Connectors,    !- Name
    Connector:Splitter,       !- Connector 1 Object Type
    DHW Main Hot Water Loop Demand Splitter,    !- Connector 1 Name
    Connector:Mixer,          !- Connector 2 Object Type
    DHW Main Hot Water Loop Demand Mixer;    !- Connector 2 Name

NODELIST,
    Main Hot Water Loop Supply Setpoint Nodes,    !- Name
    Main Boiler Outlet,       !- Node 1 Name
    Main Hot Water Loop Supply Outlet;    !- Node 2 Name

NODELIST,
    DHW Main Hot Water Loop Supply Setpoint Nodes,    !- Name
    DHW Main Boiler Outlet,    !- Node 1 Name
    DHW Main Hot Water Loop Supply Outlet;    !- Node 2 Name

PIPE:ADIABATIC,
    Main Hot Water Loop Supply Side Bypass Pipe,    !- Name
    Main Hot Water Loop Supply Bypass Inlet,    !- Inlet Node Name
    Main Hot Water Loop Supply Bypass Outlet;    !- Outlet Node Name

PIPE:ADIABATIC,
    Main Hot Water Loop Supply Outlet Pipe,    !- Name
    Main Hot Water Loop Supply Outlet Pipe Inlet,    !- Inlet Node Name
    Main Hot Water Loop Supply Outlet;    !- Outlet Node Name

PIPE:ADIABATIC,
    DHW Main Hot Water Loop Supply Side Bypass Pipe,    !- Name
    DHW Main Hot Water Loop Supply Bypass Inlet,    !- Inlet Node Name
    DHW Main Hot Water Loop Supply Bypass Outlet;    !- Outlet Node Name

PIPE:ADIABATIC,
    DHW Main Hot Water Loop Supply Outlet Pipe,    !- Name
    DHW Main Hot Water Loop Supply Outlet Pipe Inlet,    !- Inlet Node Name
    DHW Main Hot Water Loop Supply Outlet;    !- Outlet Node Name

PIPE:ADIABATIC,
    Main Hot Water Loop Demand Inlet Pipe,    !- Name
    Main Hot Water Loop Demand Inlet,    !- Inlet Node Name
    Main Hot Water Loop Demand Inlet Pipe Outlet;    !- Outlet Node Name

PIPE:ADIABATIC,
    Main Hot Water Loop Demand Side Bypass Pipe,    !- Name
    Main Hot Water Loop Demand Bypass Inlet,    !- Inlet Node Name
    Main Hot Water Loop Demand Bypass Outlet;    !- Outlet Node Name

PIPE:ADIABATIC,
    Main Hot Water Loop Demand Outlet Pipe,    !- Name
    Main Hot Water Loop Demand Outlet Pipe Inlet,    !- Inlet Node Name
    Main Hot Water Loop Demand Outlet;    !- Outlet Node Name

PIPE:ADIABATIC,
    DHW Main Hot Water Loop Demand Inlet Pipe,    !- Name
    DHW Main Hot Water Loop Demand Inlet,    !- Inlet Node Name
    DHW Main Hot Water Loop Demand Inlet Pipe Outlet;    !- Outlet Node Name

PIPE:ADIABATIC,
    DHW Main Hot Water Loop Demand Side Bypass Pipe,    !- Name
    DHW Main Hot Water Loop Demand Bypass Inlet,    !- Inlet Node Name
    DHW Main Hot Water Loop Demand Bypass Outlet;    !- Outlet Node Name

PIPE:ADIABATIC,
    DHW Main Hot Water Loop Demand Outlet Pipe,    !- Name
    DHW Main Hot Water Loop Demand Outlet Pipe Inlet,    !- Inlet Node Name
    DHW Main Hot Water Loop Demand Outlet;    !- Outlet Node Name

PUMP:CONSTANTSPEED,
    Main Hot Water Loop Supply Pump,    !- Name
    Main Hot Water Loop Supply Inlet,    !- Inlet Node Name
    Main Hot Water Loop Pump Outlet,    !- Outlet Node Name
    autosize,                 !- Design Flow Rate
    0,                        !- Design Pump Head
    autosize,                 !- Design Power Consumption
    0.9,                      !- Motor Efficiency
    0,                        !- Fraction of Motor Inefficiencies to Fluid Stream
    Intermittent,             !- Pump Control Type
    ,                         !- Pump Flow Rate Schedule Name
    ,                         !- Pump Curve Name
    ,                         !- Impeller Diameter
    ,                         !- Rotational Speed
    ,                         !- Zone Name
    ,                         !- Skin Loss Radiative Fraction
    PowerPerFlowPerPressure,    !- Design Power Sizing Method
    348701.1,                 !- Design Electric Power per Unit Flow Rate
    1.282051282,              !- Design Shaft Power per Unit Flow Rate per Unit Head
    General;                  !- EndUse Subcategory

PUMP:CONSTANTSPEED,
    DHW Main Hot Water Loop Supply Pump,    !- Name
    DHW Main Hot Water Loop Supply Inlet,    !- Inlet Node Name
    DHW Main Hot Water Loop Pump Outlet,    !- Outlet Node Name
    autosize,                 !- Design Flow Rate
    0,                        !- Design Pump Head
    autosize,                 !- Design Power Consumption
    0.9,                      !- Motor Efficiency
    0,                        !- Fraction of Motor Inefficiencies to Fluid Stream
    Intermittent,             !- Pump Control Type
    ,                         !- Pump Flow Rate Schedule Name
    ,                         !- Pump Curve Name
    ,                         !- Impeller Diameter
    ,                         !- Rotational Speed
    ,                         !- Zone Name
    ,                         !- Skin Loss Radiative Fraction
    PowerPerFlowPerPressure,    !- Design Power Sizing Method
    348701.1,                 !- Design Electric Power per Unit Flow Rate
    1.282051282,              !- Design Shaft Power per Unit Flow Rate per Unit Head
    General;                  !- EndUse Subcategory

BOILER:HOTWATER,
    Main Boiler,              !- Name
    naturalgas,               !- Fuel Type
    autosize,                 !- Nominal Capacity
    0.9,                      !- Nominal Thermal Efficiency
    EnteringBoiler,           !- Efficiency Curve Temperature Evaluation Variable
    Boiler Efficiency Curve,    !- Normalized Boiler Efficiency Curve Name
    autosize,                 !- Design Water Flow Rate
    0,                        !- Minimum Part Load Ratio
    1.1,                      !- Maximum Part Load Ratio
    1,                        !- Optimum Part Load Ratio
    Main Boiler Inlet,        !- Boiler Water Inlet Node Name
    Main Boiler Outlet,       !- Boiler Water Outlet Node Name
    100,                      !- Water Outlet Upper Temperature Limit
    ConstantFlow,             !- Boiler Flow Mode
    0,                        !- Parasitic Electric Load
    1,                        !- Sizing Factor
    General;                  !- EndUse Subcategory

BOILER:HOTWATER,
    DHW Main Boiler,          !- Name
    naturalgas,               !- Fuel Type
    autosize,                 !- Nominal Capacity
    0.9,                      !- Nominal Thermal Efficiency
    EnteringBoiler,           !- Efficiency Curve Temperature Evaluation Variable
    Boiler Efficiency Curve,    !- Normalized Boiler Efficiency Curve Name
    autosize,                 !- Design Water Flow Rate
    0,                        !- Minimum Part Load Ratio
    1.1,                      !- Maximum Part Load Ratio
    1,                        !- Optimum Part Load Ratio
    DHW Main Boiler Inlet,    !- Boiler Water Inlet Node Name
    DHW Main Boiler Outlet,    !- Boiler Water Outlet Node Name
    100,                      !- Water Outlet Upper Temperature Limit
    ConstantFlow,             !- Boiler Flow Mode
    0,                        !- Parasitic Electric Load
    1,                        !- Sizing Factor
    General;                  !- EndUse Subcategory

WATERHEATER:MIXED,
    Living DHW Water Heater Tank,    !- Name
    0,                        !- Tank Volume
    45degrees,                !- Setpoint Temperature Schedule Name
    0,                        !- Deadband Temperature Difference
    80,                       !- Maximum Temperature Limit
    Cycle,                    !- Heater Control Type
    0,                        !- Heater Maximum Capacity
    0,                        !- Heater Minimum Capacity
    ,                         !- Heater Ignition Minimum Flow Rate
    ,                         !- Heater Ignition Delay
    naturalgas,               !- Heater Fuel Type
    1,                        !- Heater Thermal Efficiency
    ,                         !- Part Load Factor Curve Name
    ,                         !- Off Cycle Parasitic Fuel Consumption Rate
    ,                         !- Off Cycle Parasitic Fuel Type
    ,                         !- Off Cycle Parasitic Heat Fraction to Tank
    ,                         !- On Cycle Parasitic Fuel Consumption Rate
    ,                         !- On Cycle Parasitic Fuel Type
    ,                         !- On Cycle Parasitic Heat Fraction to Tank
    Zone,                     !- Ambient Temperature Indicator
    ,                         !- Ambient Temperature Schedule Name
    Living,                   !- Ambient Temperature Zone Name
    ,                         !- Ambient Temperature Outdoor Air Node Name
    ,                         !- Off Cycle Loss Coefficient to Ambient Temperature
    1,                        !- Off Cycle Loss Fraction to Zone
    ,                         !- On Cycle Loss Coefficient to Ambient Temperature
    1,                        !- On Cycle Loss Fraction to Zone
    0.00016666666666666666,    !- Peak Use Flow Rate
    Living DHW Flow Rate Fraction Schedule,    !- Use Flow Rate Fraction Schedule Name
    ,                         !- Cold Water Supply Temperature Schedule Name
    ,                         !- Use Side Inlet Node Name
    ,                         !- Use Side Outlet Node Name
    1,                        !- Use Side Effectiveness
    Living Hot Water Loop Demand DHW Inlet,    !- Source Side Inlet Node Name
    Living Hot Water Loop Demand DHW Outlet,    !- Source Side Outlet Node Name
    1,                        !- Source Side Effectiveness
    ,                         !- Use Side Design Flow Rate
    0.001,                    !- Source Side Design Flow Rate
    1.5,                      !- Indirect Water Heating Recovery Time
    IndirectHeatPrimarySetpoint,    !- Source Side Flow Control Mode
    ,                         !- Indirect Alternate Setpoint Temperature Schedule Name
    General;                  !- EndUse Subcategory

PLANTLOOP,
    Main Hot Water Loop,      !- Name
    Water,                    !- Fluid Type
    ,                         !- User Defined Fluid Type
    Main Hot Water Loop Operation,    !- Plant Equipment Operation Scheme Name
    Main Hot Water Loop Supply Outlet,    !- Loop Temperature Setpoint Node Name
    100,                      !- Maximum Loop Temperature
    10,                       !- Minimum Loop Temperature
    autosize,                 !- Maximum Loop Flow Rate
    0,                        !- Minimum Loop Flow Rate
    autosize,                 !- Plant Loop Volume
    Main Hot Water Loop Supply Inlet,    !- Plant Side Inlet Node Name
    Main Hot Water Loop Supply Outlet,    !- Plant Side Outlet Node Name
    Main Hot Water Loop Supply Side Branches,    !- Plant Side Branch List Name
    Main Hot Water Loop Supply Side Connectors,    !- Plant Side Connector List Name
    Main Hot Water Loop Demand Inlet,    !- Demand Side Inlet Node Name
    Main Hot Water Loop Demand Outlet,    !- Demand Side Outlet Node Name
    Main Hot Water Loop Demand Side Branches,    !- Demand Side Branch List Name
    Main Hot Water Loop Demand Side Connectors,    !- Demand Side Connector List Name
    SequentialLoad,           !- Load Distribution Scheme
    ,                         !- Availability Manager List Name
    SingleSetpoint,           !- Plant Loop Demand Calculation Scheme
    None,                     !- Common Pipe Simulation
    None,                     !- Pressure Simulation Type
    2;                        !- Loop Circulation Time

PLANTLOOP,
    DHW Main Hot Water Loop,    !- Name
    Water,                    !- Fluid Type
    ,                         !- User Defined Fluid Type
    DHW Main Hot Water Loop Operation,    !- Plant Equipment Operation Scheme Name
    DHW Main Hot Water Loop Supply Outlet,    !- Loop Temperature Setpoint Node Name
    100,                      !- Maximum Loop Temperature
    10,                       !- Minimum Loop Temperature
    autosize,                 !- Maximum Loop Flow Rate
    0,                        !- Minimum Loop Flow Rate
    autosize,                 !- Plant Loop Volume
    DHW Main Hot Water Loop Supply Inlet,    !- Plant Side Inlet Node Name
    DHW Main Hot Water Loop Supply Outlet,    !- Plant Side Outlet Node Name
    DHW Main Hot Water Loop Supply Side Branches,    !- Plant Side Branch List Name
    DHW Main Hot Water Loop Supply Side Connectors,    !- Plant Side Connector List Name
    DHW Main Hot Water Loop Demand Inlet,    !- Demand Side Inlet Node Name
    DHW Main Hot Water Loop Demand Outlet,    !- Demand Side Outlet Node Name
    DHW Main Hot Water Loop Demand Side Branches,    !- Demand Side Branch List Name
    DHW Main Hot Water Loop Demand Side Connectors,    !- Demand Side Connector List Name
    SequentialLoad,           !- Load Distribution Scheme
    ,                         !- Availability Manager List Name
    SingleSetpoint,           !- Plant Loop Demand Calculation Scheme
    None,                     !- Common Pipe Simulation
    None,                     !- Pressure Simulation Type
    2;                        !- Loop Circulation Time

PLANTEQUIPMENTLIST,
    Main Hot Water Loop All Equipment,    !- Name
    Boiler:HotWater,          !- Equipment 1 Object Type
    Main Boiler;              !- Equipment 1 Name

PLANTEQUIPMENTLIST,
    DHW Main Hot Water Loop All Equipment,    !- Name
    Boiler:HotWater,          !- Equipment 1 Object Type
    DHW Main Boiler;          !- Equipment 1 Name

PLANTEQUIPMENTOPERATION:HEATINGLOAD,
    Main Hot Water Loop Operation All Hours,    !- Name
    0,                        !- Load Range 1 Lower Limit
    1000000000000000,         !- Load Range 1 Upper Limit
    Main Hot Water Loop All Equipment;    !- Range 1 Equipment List Name

PLANTEQUIPMENTOPERATION:HEATINGLOAD,
    DHW Main Hot Water Loop Operation All Hours,    !- Name
    0,                        !- Load Range 1 Lower Limit
    1000000000000000,         !- Load Range 1 Upper Limit
    DHW Main Hot Water Loop All Equipment;    !- Range 1 Equipment List Name

PLANTEQUIPMENTOPERATIONSCHEMES,
    Main Hot Water Loop Operation,    !- Name
    PlantEquipmentOperation:HeatingLoad,    !- Control Scheme 1 Object Type
    Main Hot Water Loop Operation All Hours,    !- Control Scheme 1 Name
    Always 1;                 !- Control Scheme 1 Schedule Name

PLANTEQUIPMENTOPERATIONSCHEMES,
    DHW Main Hot Water Loop Operation,    !- Name
    PlantEquipmentOperation:HeatingLoad,    !- Control Scheme 1 Object Type
    DHW Main Hot Water Loop Operation All Hours,    !- Control Scheme 1 Name
    Always 1;                 !- Control Scheme 1 Schedule Name

SETPOINTMANAGER:SCHEDULED,
    Main Hot Water Loop Temp Manager,    !- Name
    Temperature,              !- Control Variable
    Main Hot Water Loop Temperature Schedule,    !- Schedule Name
    Main Hot Water Loop Supply Setpoint Nodes;    !- Setpoint Node or NodeList Name

SETPOINTMANAGER:SCHEDULED,
    DHW Main Hot Water Loop Temp Manager,    !- Name
    Temperature,              !- Control Variable
    DHW Main Hot Water Loop Temperature Schedule,    !- Schedule Name
    DHW Main Hot Water Loop Supply Setpoint Nodes;    !- Setpoint Node or NodeList Name

CURVE:LINEAR,
    100p efficient,           !- Name
    1,                        !- Coefficient1 Constant
    0,                        !- Coefficient2 x
    0,                        !- Minimum Value of x
    1,                        !- Maximum Value of x
    ,                         !- Minimum Curve Output
    ,                         !- Maximum Curve Output
    ,                         !- Input Unit Type for X
    ;                         !- Output Unit Type

CURVE:CUBIC,
    DefaultFanEffRatioCurve,    !- Name
    0.33856828,               !- Coefficient1 Constant
    1.72644131,               !- Coefficient2 x
    -1.49280132,              !- Coefficient3 x2
    0.42776208,               !- Coefficient4 x3
    0.5,                      !- Minimum Value of x
    1.5,                      !- Maximum Value of x
    0.3,                      !- Minimum Curve Output
    1,                        !- Maximum Curve Output
    ,                         !- Input Unit Type for X
    ;                         !- Output Unit Type

CURVE:EXPONENT,
    DefaultFanPowerRatioCurve,    !- Name
    0,                        !- Coefficient1 Constant
    1,                        !- Coefficient2 Constant
    3,                        !- Coefficient3 Constant
    0,                        !- Minimum Value of x
    1.5,                      !- Maximum Value of x
    0.01,                     !- Minimum Curve Output
    1.5,                      !- Maximum Curve Output
    ,                         !- Input Unit Type for X
    ;                         !- Output Unit Type

CURVE:BIQUADRATIC,
    Boiler Efficiency Curve,    !- Name
    1.124970374,              !- Coefficient1 Constant
    0.014963852,              !- Coefficient2 x
    -0.02599835,              !- Coefficient3 x2
    0,                        !- Coefficient4 y
    -1.40464e-06,             !- Coefficient5 y2
    -0.00153624,              !- Coefficient6 xy
    0.1,                      !- Minimum Value of x
    1,                        !- Maximum Value of x
    30,                       !- Minimum Value of y
    85,                       !- Maximum Value of y
    ,                         !- Minimum Curve Output
    ,                         !- Maximum Curve Output
    Dimensionless,            !- Input Unit Type for X
    Dimensionless,            !- Input Unit Type for Y
    Dimensionless;            !- Output Unit Type

CURVE:BIQUADRATIC,
    DHW Boiler Efficiency Curve,    !- Name
    1.124970374,              !- Coefficient1 Constant
    0.014963852,              !- Coefficient2 x
    -0.02599835,              !- Coefficient3 x2
    0,                        !- Coefficient4 y
    -1.40464e-06,             !- Coefficient5 y2
    -0.00153624,              !- Coefficient6 xy
    0.1,                      !- Minimum Value of x
    1,                        !- Maximum Value of x
    30,                       !- Minimum Value of y
    85,                       !- Maximum Value of y
    ,                         !- Minimum Curve Output
    ,                         !- Maximum Curve Output
    Dimensionless,            !- Input Unit Type for X
    Dimensionless,            !- Input Unit Type for Y
    Dimensionless;            !- Output Unit Type

Output:VariableDictionary,
    Regular;                  !- Key Field

Output:Table:SummaryReports,
    AllSummary;               !- Report 1 Name

OutputControl:Table:Style,
    HTML;                     !- Column Separator

Output:Variable,
    *,                        !- Key Value
    Site Outdoor Air Drybulb Temperature,    !- Variable Name
    Timestep;                 !- Reporting Frequency

Output:Variable,
    *,                        !- Key Value
    Site Outdoor Air Wetbulb Temperature,    !- Variable Name
    Timestep;                 !- Reporting Frequency

Output:Variable,
    *,                        !- Key Value
    Site Outdoor Air Dewpoint Temperature,    !- Variable Name
    Timestep;                 !- Reporting Frequency

Output:Variable,
    *,                        !- Key Value
    Site Solar Azimuth Angle,    !- Variable Name
    Timestep;                 !- Reporting Frequency

Output:Variable,
    *,                        !- Key Value
    Site Solar Altitude Angle,    !- Variable Name
    Timestep;                 !- Reporting Frequency

Output:Variable,
    *,                        !- Key Value
    Site Direct Solar Radiation Rate per Area,    !- Variable Name
    Timestep;                 !- Reporting Frequency

Output:Variable,
    *,                        !- Key Value
    Site Diffuse Solar Radiation Rate per Area,    !- Variable Name
    Timestep;                 !- Reporting Frequency

OUTPUT:VARIABLE,
    *,                        !- Key Value
    Zone Mean Air Temperature,    !- Variable Name
    Timestep;                 !- Reporting Frequency

OUTPUT:VARIABLE,
    *,                        !- Key Value
    Boiler NaturalGas Energy,    !- Variable Name
    Timestep;                 !- Reporting Frequency

ENVIRONMENTALIMPACTFACTORS,
    0.3,                      !- District Heating Efficiency
    3.0,                      !- District Cooling COP
    0.25,                     !- Steam Conversion Efficiency
    298,                      !- Total Carbon Equivalent Emission Factor From N2O
    25,                       !- Total Carbon Equivalent Emission Factor From CH4
    1;                        !- Total Carbon Equivalent Emission Factor From CO2

FUELFACTORS,
    NaturalGas,               !- Existing Fuel Resource Name
    ,                         !- Units of Measure
    ,                         !- Energy per Unit Factor
    1,                        !- Source Energy Factor
    ,                         !- Source Energy Schedule Name
    52;                       !- CO2 Emission Factor

FUELFACTORS,
    Electricity,              !- Existing Fuel Resource Name
    ,                         !- Units of Measure
    ,                         !- Energy per Unit Factor
    ,                         !- Source Energy Factor
    ,                         !- Source Energy Schedule Name
    0.2777777777777778,       !- CO2 Emission Factor
    Grid Carbon Intensity Schedule;    !- CO2 Emission Factor Schedule Name