!
!-   ===========  ALL OBJECTS IN CLASS: VERSION ===========
  Version,9.5;

!-   ===========  ALL OBJECTS IN CLASS: BUILDING ===========

  Building,
    officeBlockSimple,            !- Name
    0.0,                     !- North Axis [deg]
    City,                     !- Terrain
    0.04,                    !- Loads Convergence Tolerance Value [W]
    0.04,                     !- Temperature Convergence Tolerance Value [deltaC]
    FullInteriorAndExterior,           !- Solar Distribution
    100,                        !- Maximum Number of Warmup Days
    6;                       !- Minimum Number of Warmup Days - should be 100

!-   ===========  ALL OBJECTS IN CLASS: TIMESTEP IN HOUR ===========

  Timestep,10;

!-   ===========  ALL OBJECTS IN CLASS: INSIDE CONVECTION ALGORITHM ===========

  SurfaceConvectionAlgorithm:Inside,TARP;

!-   ===========  ALL OBJECTS IN CLASS: OUTSIDE CONVECTION ALGORITHM ===========

  SurfaceConvectionAlgorithm:Outside,TARP;

!-   ===========  ALL OBJECTS IN CLASS: SOLUTION ALGORITHM ===========

      HeatBalanceAlgorithm,ConductionTransferFunction;

    !-   ===========  ALL OBJECTS IN CLASS: RUN CONTROL ===========


  Site:Location,
    Pittsburgh Allegheny Co Ap_PA_USA Design_Conditions,  !- Name
    40.35,                   !- Latitude {deg}
    -79.92,                  !- Longitude {deg}
    -5.00,                   !- Time Zone {hr}
    380.00;                  !- Elevation {m}

  SimulationControl,
    No,                      !- Do Zone Sizing Calculation
    No,                      !- Do System Sizing Calculation
    No,                      !- Do Plant Sizing Calculation
    No,                      !- Run Simulation for Sizing Periods
    Yes,                     !- Run Simulation for Weather File Run Periods
    No,                      !- Do HVAC Sizing Simulation for Sizing Periods
    1;                       !- Maximum Number of HVAC Sizing Simulation Passes

  RunPeriod,
    Run Period 1,            !- Name
    1,                       !- Begin Month
    1,                       !- Begin Day of Month
    2015,                        !- Begin Year
    12,                      !- End Month
    31,                      !- End Day of Month
    2015,                        !- End Year
    Monday,                  !- Day of Week for Start Day
    No,                     !- Use Weather File Holidays and Special Days
    Yes,                     !- Use Weather File Daylight Saving Period
    No,                      !- Apply Weekend Holiday Rule
    Yes,                     !- Use Weather File Rain Indicators
    No,                     !- Use Weather File Snow Indicators
    No;                    !- Treat Weather as Actual


!-   ===========  ALL OBJECTS IN CLASS: MATERIAL:REGULAR ===========

Material,
    CONCRETE-FF-0.15,            !- Name
    Rough,            !- Roughness
    0.15,                    !- Thickness [m]
    2.3,                    !- Conductivity [W/m-K]
    2446.0,                 !- Density [kg/m3]
    1000.0,                 !- Specific Heat [J/kg-K]
    0.9,                !- Thermal Absorptance
    0.7,                !- Solar Absorptance
    0.7;                !- Visible Absorptance

Material,
    CLT-R-0.15,            !- Name
    Rough,            !- Roughness
    0.15,                    !- Thickness [m]
    0.13,                    !- Conductivity [W/m-K]
    480.0,                 !- Density [kg/m3]
    1300.0,                 !- Specific Heat [J/kg-K]
    0.9,                !- Thermal Absorptance
    0.6,                !- Solar Absorptance
    0.6;                !- Visible Absorptance

Material,
    FIBRE-CEMENT-SHEET-EW-0.006,            !- Name
    Rough,            !- Roughness
    0.006,                    !- Thickness [m]
    0.36,                    !- Conductivity [W/m-K]
    1833.3,                 !- Density [kg/m3]
    1000.0,                 !- Specific Heat [J/kg-K]
    0.9,                !- Thermal Absorptance
    0.6,                !- Solar Absorptance
    0.6;                !- Visible Absorptance

Material,
    WOOL-EW-0.05,            !- Name
    Rough,            !- Roughness
    0.05,                    !- Thickness [m]
    0.039,                    !- Conductivity [W/m-K]
    18.0,                 !- Density [kg/m3]
    1800.0,                 !- Specific Heat [J/kg-K]
    0.9,                !- Thermal Absorptance
    0.6,                !- Solar Absorptance
    0.6;                !- Visible Absorptance

Material,
    PLASTERBOARD-EW-0.0125,            !- Name
    MediumSmooth,            !- Roughness
    0.0125,                    !- Thickness [m]
    0.04,                    !- Conductivity [W/m-K]
    700.0,                 !- Density [kg/m3]
    1000.0,                 !- Specific Heat [J/kg-K]
    0.9,                !- Thermal Absorptance
    0.6,                !- Solar Absorptance
    0.6;                !- Visible Absorptance

Material,
    CONCRETE-FA-0.04,            !- Name
    Rough,            !- Roughness
    0.04,                    !- Thickness [m]
    2.3,                    !- Conductivity [W/m-K]
    2446.0,                 !- Density [kg/m3]
    1000.0,                 !- Specific Heat [J/kg-K]
    0.9,                !- Thermal Absorptance
    0.7,                !- Solar Absorptance
    0.7;                !- Visible Absorptance

Material,
    SYNTHETIC-CARPET-FA-0.01,            !- Name
    Rough,            !- Roughness
    0.01,                    !- Thickness [m]
    0.06,                    !- Conductivity [W/m-K]
    160.0,                 !- Density [kg/m3]
    2500.0,                 !- Specific Heat [J/kg-K]
    0.9,                !- Thermal Absorptance
    0.6,                !- Solar Absorptance
    0.6;                !- Visible Absorptance

Material,
    GLASS-FIBRE-QUILT-RA-0.05,            !- Name
    Rough,            !- Roughness
    0.05,                    !- Thickness [m]
    0.043,                    !- Conductivity [W/m-K]
    20.0,                 !- Density [kg/m3]
    1030.0,                 !- Specific Heat [J/kg-K]
    0.9,                !- Thermal Absorptance
    0.6,                !- Solar Absorptance
    0.6;                !- Visible Absorptance

Material,
    FIBRE-CEMENT-SHEET-RA-0.006,            !- Name
    Rough,            !- Roughness
    0.006,                    !- Thickness [m]
    0.36,                    !- Conductivity [W/m-K]
    1833.3,                 !- Density [kg/m3]
    1000.0,                 !- Specific Heat [J/kg-K]
    0.9,                !- Thermal Absorptance
    0.6,                !- Solar Absorptance
    0.6;                !- Visible Absorptance

Material,
    CONCRETE-FFA-0.05,            !- Name
    Rough,            !- Roughness
    0.05,                    !- Thickness [m]
    2.3,                    !- Conductivity [W/m-K]
    2446.0,                 !- Density [kg/m3]
    1000.0,                 !- Specific Heat [J/kg-K]
    0.9,                !- Thermal Absorptance
    0.7,                !- Solar Absorptance
    0.7;                !- Visible Absorptance

Material,
    SYNTHETIC-CARPET-FFA-0.01,            !- Name
    Rough,            !- Roughness
    0.01,                    !- Thickness [m]
    0.06,                    !- Conductivity [W/m-K]
    160.0,                 !- Density [kg/m3]
    2500.0,                 !- Specific Heat [J/kg-K]
    0.9,                !- Thermal Absorptance
    0.6,                !- Solar Absorptance
    0.6;                !- Visible Absorptance

Material,
    EPS-FFB-0.05,            !- Name
    Rough,            !- Roughness
    0.05,                    !- Thickness [m]
    0.035,                    !- Conductivity [W/m-K]
    22.0,                 !- Density [kg/m3]
    1300.0,                 !- Specific Heat [J/kg-K]
    0.9,                !- Thermal Absorptance
    0.6,                !- Solar Absorptance
    0.6;                !- Visible Absorptance

WindowMaterial:Gas,
    ARGON 13MM,              !- Name
    Argon,                   !- Gas Type
    0.0127;

WindowMaterial:Glazing,
    CLEAR 6MM,               !- Name
    SpectralAverage,         !- Optical Data Type
    ,                        !- Window Glass Spectral Data Set Name
    .006,                    !- Thickness {m}
    .775,                    !- Solar Transmittance at Normal Incidence
    .071,                    !- Front Side Solar Reflectance at Normal Incidence
    .071,                    !- Back Side Solar Reflectance at Normal Incidence
    .881,                    !- Visible Transmittance at Normal Incidence
    .080,                    !- Front Side Visible Reflectance at Normal Incidence
    .080,                    !- Back Side Visible Reflectance at Normal Incidence
    .0,                      !- Infrared Transmittance at Normal Incidence
    .84,                     !- Front Side Infrared Hemispherical Emissivity
    .84,                     !- Back Side Infrared Hemispherical Emissivity
    .9;

WindowMaterial:Glazing,
    REF C CLEAR HI 6MM,      !- Name
    SpectralAverage,         !- Optical Data Type
    ,                        !- Window Glass Spectral Data Set Name
    .006,                    !- Thickness {m}
    .200,                    !- Solar Transmittance at Normal Incidence
    .160,                    !- Front Side Solar Reflectance at Normal Incidence
    .390,                    !- Back Side Solar Reflectance at Normal Incidence
    .220,                    !- Visible Transmittance at Normal Incidence
    .170,                    !- Front Side Visible Reflectance at Normal Incidence
    .350,                    !- Back Side Visible Reflectance at Normal Incidence
    .0,                      !- Infrared Transmittance at Normal Incidence
    .84,                     !- Front Side Infrared Hemispherical Emissivity
    .55,                     !- Back Side Infrared Hemispherical Emissivity
    .9;

Construction,
    Dbl Ref-C-H Clr 6mm/13mm Arg,  !- Name
    REF C CLEAR HI 6MM,      !- Outside Layer
    ARGON 13MM,              !- Layer 2
    CLEAR 6MM;

      Construction,
        FOUNDATIONFLOOR,
  EPS-FFB-0.05,
    Concrete-FF-0.15,
    CONCRETE-FFA-0.05,
    SYNTHETIC-CARPET-FFA-0.01;

      Construction,
        ROOF,
  GLASS-FIBRE-QUILT-RA-0.05,
  FIBRE-CEMENT-SHEET-RA-0.006,
    CLT-R-0.15;

      Construction,
        EXTERNALWALL,
    FIBRE-CEMENT-SHEET-EW-0.006,
    WOOL-EW-0.05,
    PLASTERBOARD-EW-0.0125;
!-   ===========  ALL OBJECTS IN CLASS: ZONE ===========

  Zone,
    ZONE-1,                !- Name
    0,                       !- Direction of Relative North
    0,                       !- X Origin
    0,                       !- Y Origin
    0,                       !- Z Origin
    1,                       !- Type
    1,                       !- Multiplier
    autocalculate,           !- Ceiling Height
    autocalculate;           !- Volume

  ZoneList,
  AllZones,
    ZONE-1;


!-   ===========  ALL OBJECTS IN CLASS: SURFACEGEOMETRY ===========

  GlobalGeometryRules,
    UpperLeftCorner,         !- Starting Vertex Position
    Counterclockwise,        !- Vertex Entry Direction
    Relative;                   !- Coordinate System
!
!-   ===========  ALL OBJECTS IN CLASS: SURFACE:HEATTRANSFER ===========
!     Site:GroundTemperature:BuildingSurface,18,18,18,18,18,18,18,18,18,18,18,18;

BuildingSurface:Detailed,
  EXTERNALWALL-SURFACE-1,           !- Name
  Wall,                    !- Surface Type
  EXTERNALWALL,              !- Construction Name
  ZONE-1,                !- Zone Name
  Outdoors,                !- Outside Boundary Condition
  ,                        !- Outside Boundary Condition Object
  SunExposed,              !- Sun Exposure
  WindExposed,             !- Wind Exposure
  0.5,                    !- View Factor to Ground
  4,                       !- Number of Vertices
  10,10,3.5,  !- X,Y,Z ==> Vertex 1
  10,10,0,  !- X,Y,Z ==> Vertex 2
  0,10,0,  !- X,Y,Z ==> Vertex 3
  0,10,3.5;  !- X,Y,Z ==> Vertex 4

FenestrationSurface:Detailed,
    WINDOW-1-EW-1,            !- Name
    Window,                 !- Surface Type
    Dbl Ref-C-H Clr 6mm/13mm Arg,     !- Construction Name
    EXTERNALWALL-SURFACE-1,      !- Base Surface Name
    ,                       !- OutsideFaceEnvironment Object
    autocalculate,          !- View Factor to Ground
    ,                       !- WindowFrameAndDivider Name
    1,                      !- Multiplier
    4,                      !- Number of Surface Vertex Groups
    10.0,10.0,2.275,  !- X,Y,Z ==> Vertex 1
    10.0,10.0,1.225,  !- X,Y,Z ==> Vertex 2
    0.0,10.0,1.225,  !- X,Y,Z ==> Vertex 3
    0.0,10.0,2.275;  !- X,Y,Z ==> Vertex 4

WindowShadingControl,
    SHADING-CONTROL-WINDOW-1-EW-1,       ! - Name
    ZONE-1,       ! - Zone Name
    ,       ! - Sequence Number
    ExteriorShade,       ! - Shading Type
    ,       ! - Construction with Shading Name
    OnIfHighOutdoorAirTemperature,       ! - Shading Control Type
    ,       ! - Schedule Name
    27.0,       ! - Setpoint [W/m2, W or deg C]
    NO,       ! - Shading Control Is Scheduled
    NO,       ! - Glare Control Is Active
    ROLL SHADE,       ! - Shading Device Material Name
    ,       ! - Type of Slat Angle Control for Blinds
    ,       ! - Slat Angle Schedule Name
    ,       ! - Setpoint 2
    , ! - Daylight Control Object Name
    ,       ! - Multiple Control Type
    WINDOW-1-EW-1;      ! - Fenestration
BuildingSurface:Detailed,
  EXTERNALWALL-SURFACE-2,           !- Name
  Wall,                    !- Surface Type
  EXTERNALWALL,              !- Construction Name
  ZONE-1,                !- Zone Name
  Outdoors,                !- Outside Boundary Condition
  ,                        !- Outside Boundary Condition Object
  SunExposed,              !- Sun Exposure
  WindExposed,             !- Wind Exposure
  0.5,                    !- View Factor to Ground
  4,                       !- Number of Vertices
  0,0,3.5,  !- X,Y,Z ==> Vertex 1
  0,0,0,  !- X,Y,Z ==> Vertex 2
  10,0,0,  !- X,Y,Z ==> Vertex 3
  10,0,3.5;  !- X,Y,Z ==> Vertex 4

FenestrationSurface:Detailed,
    WINDOW-1-EW-2,            !- Name
    Window,                 !- Surface Type
    Dbl Ref-C-H Clr 6mm/13mm Arg,     !- Construction Name
    EXTERNALWALL-SURFACE-2,      !- Base Surface Name
    ,                       !- OutsideFaceEnvironment Object
    autocalculate,          !- View Factor to Ground
    ,                       !- WindowFrameAndDivider Name
    1,                      !- Multiplier
    4,                      !- Number of Surface Vertex Groups
    0.0,0.0,2.275,  !- X,Y,Z ==> Vertex 1
    0.0,0.0,1.225,  !- X,Y,Z ==> Vertex 2
    10.0,0.0,1.225,  !- X,Y,Z ==> Vertex 3
    10.0,0.0,2.275;  !- X,Y,Z ==> Vertex 4

WindowShadingControl,
    SHADING-CONTROL-WINDOW-1-EW-2,       ! - Name
    ZONE-1,       ! - Zone Name
    ,       ! - Sequence Number
    ExteriorShade,       ! - Shading Type
    ,       ! - Construction with Shading Name
    OnIfHighOutdoorAirTemperature,       ! - Shading Control Type
    ,       ! - Schedule Name
    27.0,       ! - Setpoint [W/m2, W or deg C]
    NO,       ! - Shading Control Is Scheduled
    NO,       ! - Glare Control Is Active
    ROLL SHADE,       ! - Shading Device Material Name
    ,       ! - Type of Slat Angle Control for Blinds
    ,       ! - Slat Angle Schedule Name
    ,       ! - Setpoint 2
    , ! - Daylight Control Object Name
    ,       ! - Multiple Control Type
    WINDOW-1-EW-2;      ! - Fenestration
BuildingSurface:Detailed,
  EXTERNALWALL-SURFACE-3,           !- Name
  Wall,                    !- Surface Type
  EXTERNALWALL,              !- Construction Name
  ZONE-1,                !- Zone Name
  Outdoors,                !- Outside Boundary Condition
  ,                        !- Outside Boundary Condition Object
  SunExposed,              !- Sun Exposure
  WindExposed,             !- Wind Exposure
  0.5,                    !- View Factor to Ground
  4,                       !- Number of Vertices
  10,0,3.5,  !- X,Y,Z ==> Vertex 1
  10,0,0,  !- X,Y,Z ==> Vertex 2
  10,10,0,  !- X,Y,Z ==> Vertex 3
  10,10,3.5;  !- X,Y,Z ==> Vertex 4

FenestrationSurface:Detailed,
    WINDOW-1-EW-3,            !- Name
    Window,                 !- Surface Type
    Dbl Ref-C-H Clr 6mm/13mm Arg,     !- Construction Name
    EXTERNALWALL-SURFACE-3,      !- Base Surface Name
    ,                       !- OutsideFaceEnvironment Object
    autocalculate,          !- View Factor to Ground
    ,                       !- WindowFrameAndDivider Name
    1,                      !- Multiplier
    4,                      !- Number of Surface Vertex Groups
    10.0,0.0,2.275,  !- X,Y,Z ==> Vertex 1
    10.0,0.0,1.225,  !- X,Y,Z ==> Vertex 2
    10.0,10.0,1.225,  !- X,Y,Z ==> Vertex 3
    10.0,10.0,2.275;  !- X,Y,Z ==> Vertex 4

WindowShadingControl,
    SHADING-CONTROL-WINDOW-1-EW-3,       ! - Name
    ZONE-1,       ! - Zone Name
    ,       ! - Sequence Number
    ExteriorShade,       ! - Shading Type
    ,       ! - Construction with Shading Name
    OnIfHighOutdoorAirTemperature,       ! - Shading Control Type
    ,       ! - Schedule Name
    27.0,       ! - Setpoint [W/m2, W or deg C]
    NO,       ! - Shading Control Is Scheduled
    NO,       ! - Glare Control Is Active
    ROLL SHADE,       ! - Shading Device Material Name
    ,       ! - Type of Slat Angle Control for Blinds
    ,       ! - Slat Angle Schedule Name
    ,       ! - Setpoint 2
    , ! - Daylight Control Object Name
    ,       ! - Multiple Control Type
    WINDOW-1-EW-3;      ! - Fenestration
BuildingSurface:Detailed,
  EXTERNALWALL-SURFACE-4,           !- Name
  Wall,                    !- Surface Type
  EXTERNALWALL,              !- Construction Name
  ZONE-1,                !- Zone Name
  Outdoors,                !- Outside Boundary Condition
  ,                        !- Outside Boundary Condition Object
  SunExposed,              !- Sun Exposure
  WindExposed,             !- Wind Exposure
  0.5,                    !- View Factor to Ground
  4,                       !- Number of Vertices
  0,10,3.5,  !- X,Y,Z ==> Vertex 1
  0,10,0,  !- X,Y,Z ==> Vertex 2
  0,0,0,  !- X,Y,Z ==> Vertex 3
  0,0,3.5;  !- X,Y,Z ==> Vertex 4

FenestrationSurface:Detailed,
    WINDOW-1-EW-4,            !- Name
    Window,                 !- Surface Type
    Dbl Ref-C-H Clr 6mm/13mm Arg,     !- Construction Name
    EXTERNALWALL-SURFACE-4,      !- Base Surface Name
    ,                       !- OutsideFaceEnvironment Object
    autocalculate,          !- View Factor to Ground
    ,                       !- WindowFrameAndDivider Name
    1,                      !- Multiplier
    4,                      !- Number of Surface Vertex Groups
    0.0,10.0,2.275,  !- X,Y,Z ==> Vertex 1
    0.0,10.0,1.225,  !- X,Y,Z ==> Vertex 2
    0.0,0.0,1.225,  !- X,Y,Z ==> Vertex 3
    0.0,0.0,2.275;  !- X,Y,Z ==> Vertex 4

WindowShadingControl,
    SHADING-CONTROL-WINDOW-1-EW-4,       ! - Name
    ZONE-1,       ! - Zone Name
    ,       ! - Sequence Number
    ExteriorShade,       ! - Shading Type
    ,       ! - Construction with Shading Name
    OnIfHighOutdoorAirTemperature,       ! - Shading Control Type
    ,       ! - Schedule Name
    27.0,       ! - Setpoint [W/m2, W or deg C]
    NO,       ! - Shading Control Is Scheduled
    NO,       ! - Glare Control Is Active
    ROLL SHADE,       ! - Shading Device Material Name
    ,       ! - Type of Slat Angle Control for Blinds
    ,       ! - Slat Angle Schedule Name
    ,       ! - Setpoint 2
    , ! - Daylight Control Object Name
    ,       ! - Multiple Control Type
    WINDOW-1-EW-4;      ! - Fenestration
BuildingSurface:Detailed,
    SURFACE-FOUNDATIONFLOOR,             !- Name
    FLOOR,                   !- Surface Type
    FOUNDATIONFLOOR,              !- Construction Name
    ZONE-1,                !- Zone Name
    Ground,                 !- Outside Boundary Condition
    ,             !- Outside Boundary Condition Object
    NoSun,                   !- Sun Exposure
    NoWind,                  !- Wind Exposure
    1.0,                     !- View Factor to Ground
    4,                       !- Number of Vertices
  0,0,0,  !- X,Y,Z ==> Vertex 1
  0,10,0,  !- X,Y,Z ==> Vertex 2
  10,10,0,  !- X,Y,Z ==> Vertex 3
  10,0,0;  !- X,Y,Z ==> Vertex 4

Daylighting:ReferencePoint,
    Day Light Reference Point 0 for Zone-1,       ! - Name
    Zone-1,       ! - Zone Name
    2.5,2.5,1.0;       ! - XYZ of Point

Daylighting:ReferencePoint,
    Day Light Reference Point 1 for Zone-1,       ! - Name
    Zone-1,       ! - Zone Name
    2.5,7.5,1.0;       ! - XYZ of Point

Daylighting:ReferencePoint,
    Day Light Reference Point 2 for Zone-1,       ! - Name
    Zone-1,       ! - Zone Name
    7.5,2.5,1.0;       ! - XYZ of Point

Daylighting:ReferencePoint,
    Day Light Reference Point 3 for Zone-1,       ! - Name
    Zone-1,       ! - Zone Name
    7.5,7.5,1.0;       ! - XYZ of Point

BuildingSurface:Detailed,
    SURFACE-ROOF,             !- Name
    ROOF,                   !- Surface Type
    ROOF,              !- Construction Name
    ZONE-1,                !- Zone Name
    Outdoors,                 !- Outside Boundary Condition
    ,             !- Outside Boundary Condition Object
    SunExposed,                   !- Sun Exposure
    WindExposed,                  !- Wind Exposure
    0.0,                     !- View Factor to Ground
    4,                       !- Number of Vertices
  0,10,3.5,  !- X,Y,Z ==> Vertex 1
  0,0,3.5,  !- X,Y,Z ==> Vertex 2
  10,0,3.5,  !- X,Y,Z ==> Vertex 3
  10,10,3.5;  !- X,Y,Z ==> Vertex 4

!-   ===========  ALL OBJECTS IN CLASS: SHADING:ZONE:DETAILED ===========


Shading:Building ,
    NEIGHBOUR-L2-X0-Y1-SOUTH, !- Name
    180, !- Azimuth Angle [deg]
    90, !- Tilt Angle [deg]
    -220.0, !- Starting X Coordinate [m]
    -100.0, !- Starting Y Coordinate [m]
    0, !- Starting Z Coordinate [m]
    10.0, !- Length [m]
    3.5; !- Height [m]



Shading:Building ,
    NEIGHBOUR-L2-X0-Y1-EAST, !- Name
    90, !- Azimuth Angle [deg]
    90, !- Tilt Angle [deg]
    -210.0, !- Starting X Coordinate [m]
    -110.0, !- Starting Y Coordinate [m]
    0, !- Starting Z Coordinate [m]
    10.0, !- Length [m]
    3.5; !- Height [m]



Shading:Building ,
    NEIGHBOUR-L2-X0-Y3-NORTH, !- Name
    180, !- Azimuth Angle [deg]
    90, !- Tilt Angle [deg]
    -220.0, !- Starting X Coordinate [m]
    110.0, !- Starting Y Coordinate [m]
    0, !- Starting Z Coordinate [m]
    10.0, !- Length [m]
    3.5; !- Height [m]



Shading:Building ,
    NEIGHBOUR-L2-X0-Y3-EAST, !- Name
    90, !- Azimuth Angle [deg]
    90, !- Tilt Angle [deg]
    -210.0, !- Starting X Coordinate [m]
    110.0, !- Starting Y Coordinate [m]
    0, !- Starting Z Coordinate [m]
    10.0, !- Length [m]
    3.5; !- Height [m]



Shading:Building ,
    NEIGHBOUR-L2-X1-Y0-SOUTH, !- Name
    180, !- Azimuth Angle [deg]
    90, !- Tilt Angle [deg]
    -110.0, !- Starting X Coordinate [m]
    -210.0, !- Starting Y Coordinate [m]
    0, !- Starting Z Coordinate [m]
    10.0, !- Length [m]
    3.5; !- Height [m]



Shading:Building ,
    NEIGHBOUR-L2-X1-Y0-EAST, !- Name
    90, !- Azimuth Angle [deg]
    90, !- Tilt Angle [deg]
    -100.0, !- Starting X Coordinate [m]
    -220.0, !- Starting Y Coordinate [m]
    0, !- Starting Z Coordinate [m]
    10.0, !- Length [m]
    3.5; !- Height [m]



Shading:Building ,
    NEIGHBOUR-L2-X1-Y1-SOUTH, !- Name
    180, !- Azimuth Angle [deg]
    90, !- Tilt Angle [deg]
    -110.0, !- Starting X Coordinate [m]
    -100.0, !- Starting Y Coordinate [m]
    0, !- Starting Z Coordinate [m]
    10.0, !- Length [m]
    3.5; !- Height [m]



Shading:Building ,
    NEIGHBOUR-L2-X1-Y1-EAST, !- Name
    90, !- Azimuth Angle [deg]
    90, !- Tilt Angle [deg]
    -100.0, !- Starting X Coordinate [m]
    -110.0, !- Starting Y Coordinate [m]
    0, !- Starting Z Coordinate [m]
    10.0, !- Length [m]
    3.5; !- Height [m]



Shading:Building ,
    NEIGHBOUR-L2-X1-Y2-EAST, !- Name
    90, !- Azimuth Angle [deg]
    90, !- Tilt Angle [deg]
    -100.0, !- Starting X Coordinate [m]
    0.0, !- Starting Y Coordinate [m]
    0, !- Starting Z Coordinate [m]
    10.0, !- Length [m]
    3.5; !- Height [m]



Shading:Building ,
    NEIGHBOUR-L2-X1-Y3-NORTH, !- Name
    180, !- Azimuth Angle [deg]
    90, !- Tilt Angle [deg]
    -110.0, !- Starting X Coordinate [m]
    110.0, !- Starting Y Coordinate [m]
    0, !- Starting Z Coordinate [m]
    10.0, !- Length [m]
    3.5; !- Height [m]



Shading:Building ,
    NEIGHBOUR-L2-X1-Y3-EAST, !- Name
    90, !- Azimuth Angle [deg]
    90, !- Tilt Angle [deg]
    -100.0, !- Starting X Coordinate [m]
    110.0, !- Starting Y Coordinate [m]
    0, !- Starting Z Coordinate [m]
    10.0, !- Length [m]
    3.5; !- Height [m]



Shading:Building ,
    NEIGHBOUR-L2-X1-Y4-NORTH, !- Name
    180, !- Azimuth Angle [deg]
    90, !- Tilt Angle [deg]
    -110.0, !- Starting X Coordinate [m]
    220.0, !- Starting Y Coordinate [m]
    0, !- Starting Z Coordinate [m]
    10.0, !- Length [m]
    3.5; !- Height [m]



Shading:Building ,
    NEIGHBOUR-L2-X1-Y4-EAST, !- Name
    90, !- Azimuth Angle [deg]
    90, !- Tilt Angle [deg]
    -100.0, !- Starting X Coordinate [m]
    220.0, !- Starting Y Coordinate [m]
    0, !- Starting Z Coordinate [m]
    10.0, !- Length [m]
    3.5; !- Height [m]



Shading:Building ,
    NEIGHBOUR-L2-X2-Y0-SOUTH, !- Name
    180, !- Azimuth Angle [deg]
    90, !- Tilt Angle [deg]
    0.0, !- Starting X Coordinate [m]
    -210.0, !- Starting Y Coordinate [m]
    0, !- Starting Z Coordinate [m]
    10.0, !- Length [m]
    3.5; !- Height [m]



Shading:Building ,
    NEIGHBOUR-L2-X2-Y1-SOUTH, !- Name
    180, !- Azimuth Angle [deg]
    90, !- Tilt Angle [deg]
    0.0, !- Starting X Coordinate [m]
    -100.0, !- Starting Y Coordinate [m]
    0, !- Starting Z Coordinate [m]
    10.0, !- Length [m]
    3.5; !- Height [m]



Shading:Building ,
    NEIGHBOUR-L2-X2-Y3-NORTH, !- Name
    180, !- Azimuth Angle [deg]
    90, !- Tilt Angle [deg]
    0.0, !- Starting X Coordinate [m]
    110.0, !- Starting Y Coordinate [m]
    0, !- Starting Z Coordinate [m]
    10.0, !- Length [m]
    3.5; !- Height [m]



Shading:Building ,
    NEIGHBOUR-L2-X2-Y4-NORTH, !- Name
    180, !- Azimuth Angle [deg]
    90, !- Tilt Angle [deg]
    0.0, !- Starting X Coordinate [m]
    220.0, !- Starting Y Coordinate [m]
    0, !- Starting Z Coordinate [m]
    10.0, !- Length [m]
    3.5; !- Height [m]



Shading:Building ,
    NEIGHBOUR-L2-X3-Y0-SOUTH, !- Name
    180, !- Azimuth Angle [deg]
    90, !- Tilt Angle [deg]
    110.0, !- Starting X Coordinate [m]
    -210.0, !- Starting Y Coordinate [m]
    0, !- Starting Z Coordinate [m]
    10.0, !- Length [m]
    3.5; !- Height [m]



Shading:Building ,
    NEIGHBOUR-L2-X3-Y0-WEST, !- Name
    90, !- Azimuth Angle [deg]
    90, !- Tilt Angle [deg]
    110.0, !- Starting X Coordinate [m]
    -220.0, !- Starting Y Coordinate [m]
    0, !- Starting Z Coordinate [m]
    10.0, !- Length [m]
    3.5; !- Height [m]



Shading:Building ,
    NEIGHBOUR-L2-X3-Y1-SOUTH, !- Name
    180, !- Azimuth Angle [deg]
    90, !- Tilt Angle [deg]
    110.0, !- Starting X Coordinate [m]
    -100.0, !- Starting Y Coordinate [m]
    0, !- Starting Z Coordinate [m]
    10.0, !- Length [m]
    3.5; !- Height [m]



Shading:Building ,
    NEIGHBOUR-L2-X3-Y1-WEST, !- Name
    90, !- Azimuth Angle [deg]
    90, !- Tilt Angle [deg]
    110.0, !- Starting X Coordinate [m]
    -110.0, !- Starting Y Coordinate [m]
    0, !- Starting Z Coordinate [m]
    10.0, !- Length [m]
    3.5; !- Height [m]



Shading:Building ,
    NEIGHBOUR-L2-X3-Y2-WEST, !- Name
    90, !- Azimuth Angle [deg]
    90, !- Tilt Angle [deg]
    110.0, !- Starting X Coordinate [m]
    0.0, !- Starting Y Coordinate [m]
    0, !- Starting Z Coordinate [m]
    10.0, !- Length [m]
    3.5; !- Height [m]



Shading:Building ,
    NEIGHBOUR-L2-X3-Y3-NORTH, !- Name
    180, !- Azimuth Angle [deg]
    90, !- Tilt Angle [deg]
    110.0, !- Starting X Coordinate [m]
    110.0, !- Starting Y Coordinate [m]
    0, !- Starting Z Coordinate [m]
    10.0, !- Length [m]
    3.5; !- Height [m]



Shading:Building ,
    NEIGHBOUR-L2-X3-Y3-WEST, !- Name
    90, !- Azimuth Angle [deg]
    90, !- Tilt Angle [deg]
    110.0, !- Starting X Coordinate [m]
    110.0, !- Starting Y Coordinate [m]
    0, !- Starting Z Coordinate [m]
    10.0, !- Length [m]
    3.5; !- Height [m]



Shading:Building ,
    NEIGHBOUR-L2-X3-Y4-NORTH, !- Name
    180, !- Azimuth Angle [deg]
    90, !- Tilt Angle [deg]
    110.0, !- Starting X Coordinate [m]
    220.0, !- Starting Y Coordinate [m]
    0, !- Starting Z Coordinate [m]
    10.0, !- Length [m]
    3.5; !- Height [m]



Shading:Building ,
    NEIGHBOUR-L2-X3-Y4-WEST, !- Name
    90, !- Azimuth Angle [deg]
    90, !- Tilt Angle [deg]
    110.0, !- Starting X Coordinate [m]
    220.0, !- Starting Y Coordinate [m]
    0, !- Starting Z Coordinate [m]
    10.0, !- Length [m]
    3.5; !- Height [m]



Shading:Building ,
    NEIGHBOUR-L2-X4-Y1-SOUTH, !- Name
    180, !- Azimuth Angle [deg]
    90, !- Tilt Angle [deg]
    220.0, !- Starting X Coordinate [m]
    -100.0, !- Starting Y Coordinate [m]
    0, !- Starting Z Coordinate [m]
    10.0, !- Length [m]
    3.5; !- Height [m]



Shading:Building ,
    NEIGHBOUR-L2-X4-Y1-WEST, !- Name
    90, !- Azimuth Angle [deg]
    90, !- Tilt Angle [deg]
    220.0, !- Starting X Coordinate [m]
    -110.0, !- Starting Y Coordinate [m]
    0, !- Starting Z Coordinate [m]
    10.0, !- Length [m]
    3.5; !- Height [m]



Shading:Building ,
    NEIGHBOUR-L2-X4-Y3-NORTH, !- Name
    180, !- Azimuth Angle [deg]
    90, !- Tilt Angle [deg]
    220.0, !- Starting X Coordinate [m]
    110.0, !- Starting Y Coordinate [m]
    0, !- Starting Z Coordinate [m]
    10.0, !- Length [m]
    3.5; !- Height [m]



Shading:Building ,
    NEIGHBOUR-L2-X4-Y3-WEST, !- Name
    90, !- Azimuth Angle [deg]
    90, !- Tilt Angle [deg]
    220.0, !- Starting X Coordinate [m]
    110.0, !- Starting Y Coordinate [m]
    0, !- Starting Z Coordinate [m]
    10.0, !- Length [m]
    3.5; !- Height [m]


!-   ===========  ALL OBJECTS IN CLASS: SCHEDULETYPE ===========

  ScheduleTypeLimits,
    Any Number;              !- Name

!-   ===========  ALL OBJECTS IN CLASS: SCHEDULE:COMPACT ===========

    Schedule:Day:Hourly,
    Office Day,
    Any Number,
    1,1,1,1,1,1,1,1,1,0,0,0,0,0,0,0,0,1,1,1,1,1,1,1;

    Schedule:Day:Hourly,
    Weekend Day,
    Any Number,
    1,1,1,1,1,1,1,1,1,1,1,1,1,1,1,1,1,1,1,1,1,1,1,1;

    Schedule:Week:Compact,
    Office Week,
    WeekDays,
    Office Day,
    AllOtherDays,
    Weekend Day;

    Schedule:Year,
    Office Year,
    Any Number,
    Office Week,
    1,
    1,
    12,
    31;

    Schedule:Day:Hourly,
    Lighting Week Day,
    Any Number,
    0.1,0.1,0.1,0.1,0.1,0.1,1,1,1,0.1,0.1,0.1,0.1,0.1,0.1,0.1,0.1,1,1,1,1,1,1,0.1;

    Schedule:Day:Hourly,
    Lighting Weekend Day,
    Any Number,
    0.1,0.1,0.1,0.1,0.1,0.1,1,1,1,1,1,1,1,1,1,1,1,1,1,1,1,1,1,0.1;

    Schedule:Week:Compact,
    Lighting Week,
    WeekDays,
    Lighting Week Day,
    AllOtherDays,
    Lighting Weekend Day;

    Schedule:Year,
    Lighting Year,
    Any Number,
    Lighting Week,
    1,
    1,
    12,
    31;

  Schedule:Compact,
    Zone Control Type Schedule,  !- Name
    Any Number,             !- Schedule Type Limits Name
    Through: 12/31,          !- Field 1
    For: AllDays,            !- Field 2
    Until: 24:00,4;          !- Field 3

  Schedule:Compact,
    Always Schedule,  !- Name
    Any Number,             !- Schedule Type Limits Name
    Through: 12/31,          !- Field 1
    For: AllDays,            !- Field 2
    Until: 24:00,1.0;          !- Field 3

  Schedule:Compact,
    Activity Schedule,  !- Name
    Any Number,             !- Schedule Type Limits Name
    Through: 12/31,          !- Field 1
    For: AllDays,            !- Field 2
    Until: 24:00, 100;          !- Field 3

  Schedule:Compact,
    Heating Setpoints,         !- Name
    Any Number,                !- Schedule Type Limits Name
    Through: 12/31,          !- Field 1
    For: AllDays, !- Field 2
    Until: 24:00,20.0;        !- Field 7

  Schedule:Compact,
    Cooling Setpoints,         !- Name
    Any Number,                !- Schedule Type Limits Name
    Through: 12/31,          !- Field 1
    For: AllDays, !- Field 2
    Until: 24:00,25.0;        !- Field 7


  ExternalInterface:Schedule,
    Zone1-natVent-rl,             ! Name
    Any Number,                   ! Schedule Type Limits Name
    0.0;                          ! Initial Value

 ZoneVentilation:DesignFlowRate,
 Zone-1 NaturalVentilation,       ! - Name
 Zone-1, !- Zone Name      ! - Zone or ZoneList Name
 Zone1-natVent-rl,       ! - Schedule Name
 AirChanges/Hour,       ! - Design Flow Rate Calculation Method
 ,       ! - Design Flow Rate [m3/s]
 ,       ! - Flow Rate per Zone Floor Area [m3/s-m2]
 ,       ! - Flow Rate per Person [m3/s-person]
 5,       ! - Air Changes per Hour [1/hr]
 Natural,       ! - Ventilation Type
 1,       ! - Fan Pressure Rise [Pa]
 1,       ! - Fan Total Efficiency
 1,       ! - Constant Term Coefficient
 0,       ! - Temperature Term Coefficient
 0,       ! - Velocity Term Coefficient
 0,       ! - Velocity Squared Term Coefficient
 0.0,       ! - Minimum Indoor Temperature [C]
 ,       ! - Minimum Indoor Temperature Schedule
 ,       ! - Maximum Indoor Temperature [C]
 , ! - Maximum Indoor Temperature Schedule
 -100.0;       ! - Delta Temperature [deltaC]

!-   ===========  ALL OBJECTS IN CLASS: WINDOWMATERIAL:SHADING ===========
    WindowMaterial:Shade,
    ROLL SHADE,       ! - Name
    0.1,       ! - Solar Transmittance { dimensionless }
    0.8,       ! - Solar Reflectance { dimensionless }
    0.1,       ! - Visible Transmittance { dimensionless }
    0.8,       ! - Visible Reflectance { dimensionless }
    0.9,       ! - Infrared Hemispherical Emissivity { dimensionless }
    0.0,       ! - Infrared Transmittance { dimensionless }
    0.005,       ! - Thickness { m }
    0.1,       ! - Conductivity { W / m - K }
    0.05,       ! - Shade to Glass Distance { m }
    0.5,       ! - Top Opening Multiplier
    0.5,       ! - Bottom Opening Multiplier
    0.5,       ! - Left - Side Opening Multiplier
    0.5,       ! - Right - Side Opening Multiplier
    ;       ! - Airflow Permeability { dimensionless}


-   ===========  ALL OBJECTS IN CLASS: HVACTemplate:Thermostat ===========

   HVACTemplate:Thermostat,
       Office Thermostat, !- Thermostat Name
       Heating Setpoints, !- Heating Setpoint Schedule
       , !- Constant Heating Setpoint [C]
       Cooling Setpoints, !- Cooling Setpoint Schedule
       ; !- Constant Cooling Setpoint [C]

  HVACTemplate:Zone:BaseboardHeat ,
      ZONE-1, !- Zone Name
      Office Thermostat , !- Template Thermostat Name
      , !- Zone Heating Sizing Factor
      HotWater , !- Baseboard Heating Type
      , !- Baseboard Heating Availability Schedule Name
      Autosize; !- Baseboard Heating Capacity {W}
      , !- Dedicated Outdoor Air System Name
      flow/person , !- Outdoor Air Method
      0.0 , !- Outdoor Air Flow Rate per Person {m3/s}
      0.0, !- Outdoor Air Flow Rate per Zone Floor Area {m3/s-m2}
      0.0, !- Outdoor Air Flow Rate per Zone {m3/s}
      , !- Design Specification Outdoor Air Object Name
      ; !- Design Specification Zone Air Distribution Object Name

  HVACTemplate:Plant:HotWaterLoop ,
      Hot Water Loop , !-Plant Loop Name
      , !- Pump Schedule
      Intermittent , !- Pump Control Type
      Default , !- Hot Water Plant Operation Scheme Type
      , !- Hot Water Plant Operation Scheme List Name
      , !- Hot Water Setpoint Schedule
      82, !- Hot Water Design Setpoint {C}
      VariableFlow , !- Hot Water Pump Configuration
      179352 , !- Hot Water Pump Rated Head {Pa}
      None , !- Hot Water Setpoint Reset Type
      82.2, !- Hot Water Setpoint at Outdoor Dry Bulb Low {C}
      -6.7, !- Hot Water Reset Outdoor Dry Bulb Low {C}
      65.6, !- Hot Water Setpoint at Outdoor Dry Bulb High {C}
      10, !- Hot Water Reset Outdoor Dry Bulb High {C}
      SinglePump , !- Hot Water Pump Type
      Yes , !- Supply Side Bypass Pipe
      Yes , !- Demand Side Bypass Pipe
      Water , !- Fluid Type
      11, !- Loop Design Delta Temperature {deltaC}
      , !- Maximum Outdoor Dry Bulb Temperature {C}
      SequentialLoad; !- Load Distribution Scheme

  HVACTemplate:Plant:Boiler ,
      Main Boiler , !- Name
      CondensingHotWaterBoiler , !- Boiler Type
      autosize , !- Capacity {W}
      0.8, !- Efficiency
      NaturalGas , !- Fuel Type
      1, !- Priority
      1, !- Sizing Factor
      0.1, !- Minimum Part Load Ratio
      1.1, !- Maximum Part Load Ratio
      0.9, !- Optimum Part Load Ratio
      99.9; !- Water Outlet Upper Temperature Limit {C}

!-   ===========  ALL OBJECTS IN GROUP: AIRFLOW ===========

  ZoneInfiltration:DesignFlowRate,
      AllZones Infiltration, !- Name
      AllZones, !- Zone or ZoneList Name
      Always Schedule, !- Schedule Name
      Flow/ExteriorArea, !- Design Flow Rate Calculation Method
      , !- Design Flow Rate [m3/s]
      , !- Flow per Zone Floor Area [m3/s-m2]
      0.00011666666666666668, !- Flow per Exterior Surface Area [m3/s-m2]
      , !- Air Changes per Hour
      0.6060000, !- Constant Term Coefficient
      3.6359996E-02, !- Temperature Term Coefficient
      0.1177165, !- Velocity Term Coefficient
      0.0000000E+00; !- Velocity Squared Term Coefficient


    !-   ===========  ALL OBJECTS IN GROUP: INTERNAL GAINS ===========

      People,
          People, !- Name
          AllZones, !- Zone or ZoneListName
          Office Year, !- Number of People Schedule Name
          people/area, !- Number of People Calculation Method
          , !- Number of People,
          0.0285, !- People per Zone Floor Area
          , !- Zone Floor Area per Person
          0.3, !- Fraction Radiant
          Autocalculate, !- Sensible Heat Fraction
          Activity Schedule; !- Activity level Schedule Name

      ElectricEquipment,
          AllZones with Electric Equipment, !- Name
          AllZones, !- Zone or ZoneList Name
          Office Year, !- Schedule Name
          Watts/Person, !- Design Level Calculation Method
          , !- Design Level [W]
          , !- Watts per Zone Floor Area [W/m2]
          100, !- Watts per Person [W/person]
          0, !- Fraction Latent
          0.3 !- Fraction Radiant
          0; !- Fraction Lost

     Lights,
        Light_Office,       ! - Name
        AllZones,       ! - Zone or ZoneList Name
        Lighting Year,       ! - Schedule Name
        Watts/area,       ! - Design Level Calculation Method
        ,       ! - Lighting Level [W]
        1,       ! - Watts per Zone Floor Area [W/m2]
        ,       ! - Watts per Person [W/person]
        0,       ! - Return Air Fraction
        0.1,       ! - Fraction Radiant
        0.18,       ! - Fraction Visible
        1.0;       ! - Fraction Replaceable


    !-   ===========  ALL OBJECTS IN CLASS: REPORT ===========


      !Output:Meter,DistrictHeating:Facility,RunPeriod; !TimeStep; !
      !Output:Meter,DistrictCooling:Facility,RunPeriod; !TimeStep; !
      !Output:Variable,*,Zone Mechanical Ventilation Current Density Volume,RunPeriod;
      !Output:Variable,*,Lights Electricity Energy,RunPeriod;
      Output:Variable,*,Zone Ideal Loads Zone Total Cooling Energy,TimeStep;
      Output:VariableDictionary,regular,Name;


Site:GroundTemperature:BuildingSurface,
  18,                                                      !- January Ground Temperature
  18,                                                      !- February Ground Temperature
  18,                                                      !- March Ground Temperature
  18,                                                      !- April Ground Temperature
  18,                                                      !- May Ground Temperature
  18,                                                      !- June Ground Temperature
  18,                                                      !- July Ground Temperature
  18,                                                      !- August Ground Temperature
  18,                                                      !- September Ground Temperature
  18,                                                      !- October Ground Temperature
  18,                                                      !- November Ground Temperature
  18;                                                      !- December Ground Temperature
